1
1.0
        6.4445257187         0.0000000000         0.0000000000
       -0.4947247641         4.6151875298         0.0000000000
       -0.5552084949         0.2410044362         9.3158583192
    I    H    C   Pb    N   Cr
    3    8    3    1    1    1
Direct
     0.821787913         0.802372969         0.789736944
     0.367557289         0.155454298         0.073243660
     0.878217547         0.776567641         0.309203117
     0.037830890         0.230697383         0.547724352
     0.252884163         0.238339391         0.351194367
     0.356553435         0.570397114         0.387440947
     0.539149303         0.044204802         0.472748559
     0.632428288         0.397263760         0.533510039
     0.427501069         0.312076526         0.749263209
     0.309749434         0.975435498         0.685615041
     0.168244009         0.571883328         0.601734303
     0.496834794         0.236558027         0.523150802
     0.188899860         0.354843967         0.568653557
     0.359586919         0.199167161         0.654503022
     0.858853579         0.299230844         0.041506882
     0.318271510         0.368987290         0.433281198
     0.000000000         0.000000000         0.000000000
