60
Generated C60 structure
C 2.933279 1.055621 -3.104972
C -1.749931 2.635420 0.454367
C -2.833286 -1.388424 2.680730
C 2.671884 0.860525 -0.797542
C 1.818358 -2.260243 0.739654
C 2.485363 0.925402 -1.463705
C 2.424813 0.753871 -2.455052
C -2.627371 2.773458 -1.433302
C 2.912101 -1.884225 -2.471692
C 2.717431 0.818440 -1.523024
C 1.867435 2.711529 2.616670
C -2.933249 -2.683840 -2.920494
C 2.501401 0.852001 2.438639
C -3.149751 0.633378 2.528414
C 3.003747 2.678237 2.779099
C -0.039177 2.760629 -2.364306
C 2.671055 2.511401 -3.114695
C -2.910001 2.871338 2.607186
C 2.723205 2.797106 -2.825075
C 3.051530 -1.512871 1.445731
C -2.371486 -2.343049 -2.925792
C -2.699019 -2.600158 -3.122125
C 2.762652 1.890079 1.596189
C -2.027181 1.943357 2.737765
C 2.678952 -2.157722 3.093116
C -2.739604 -1.206238 -1.463110
C -2.871316 -2.494252 2.495508
C 2.778488 -2.317258 -1.270329
C 0.102403 -2.237346 -2.051992
C 3.061588 -1.748564 -2.505457
C -2.804969 -2.264120 -1.779892
C -2.617252 2.860358 -2.388219
C -2.346731 -2.395010 2.558218
C 0.743709 -2.756906 2.888714
C -1.672660 2.543373 -2.718130
C 2.791565 -2.311059 -1.922941
C 1.457404 2.634106 -0.287268
C 2.791999 2.067996 2.942193
C 2.890915 -0.968168 -2.932707
C 0.787539 -2.632750 -2.833552
C -2.863096 3.087393 -1.379914
C 2.838449 2.908604 1.594824
C 2.155615 2.138908 -0.521368
C 1.220424 2.757864 -0.129353
C -2.954903 -2.393577 2.608140
C 2.933488 -2.883758 -1.998409
C -2.467689 2.688301 -1.816944
C 2.738780 1.759980 -2.379741
C -1.243729 -1.496472 -1.580503
C 2.516709 -2.853678 -2.944687
C 1.456727 1.021545 0.613666
C 2.679584 2.842616 2.627772
C -2.791305 -2.777925 -3.134330
C 0.221025 -0.257600 2.696026
C -1.545243 -1.644483 -2.906898
C 2.898093 2.179193 -2.610180
C -2.216599 2.623098 -2.738902
C 2.463102 -2.430558 -1.524480
C 3.086787 -2.619609 -2.319980
C 0.653801 2.271064 -2.623724
