60
Generated C60 structure
C 2.266607 1.460786 -2.643070
C -2.426570 -2.630867 -2.847623
C 2.362231 2.067619 -1.895788
C -2.729001 0.238003 -2.631269
C 2.476315 2.607532 2.879638
C 2.779713 2.543728 2.875767
C -2.587122 2.836345 2.972577
C -0.793305 -2.356223 -2.882745
C 2.649222 2.638025 2.672649
C 2.593670 2.783532 -3.079131
C 2.878001 2.832377 2.438760
C -1.649276 2.254887 -2.879856
C -3.008991 2.856731 2.555366
C 2.758780 2.702427 -2.849908
C -2.591382 -2.760705 2.088552
C -3.227327 -2.774367 2.128506
C 2.611595 -3.074058 -1.419884
C 2.864424 2.913429 3.133590
C -2.689994 2.318771 2.600740
C 2.400562 -0.268993 -1.551893
C 2.665513 3.158577 -2.957259
C 3.018692 -2.949076 -2.902610
C -2.843912 2.673738 -3.010579
C -2.573153 -2.007674 1.138640
C 2.375528 2.640481 -3.172451
C -2.002518 -2.673343 -2.982368
C -2.578350 2.957436 -3.030832
C 2.985564 1.707031 -2.469773
C -3.025011 -1.388211 -2.838787
C -2.118049 -2.393623 2.826521
C 2.904876 -1.956408 -3.027443
C -1.878732 -1.158981 -2.642329
C 3.014506 1.750064 -2.558067
C 2.017578 -2.482322 -2.714473
C -2.730086 2.970983 0.514234
C -2.643620 2.930047 2.762467
C 2.521137 -2.257388 2.737589
C 0.977420 2.636693 -2.821209
C -2.981526 -2.706123 2.446383
C 2.649044 0.007678 -2.197187
C -1.770254 -2.826578 2.162209
C 1.485145 -2.581461 -2.600304
C 1.893630 -2.665792 -0.407597
C 2.730720 -2.379196 2.662586
C -3.248368 -2.623196 2.878971
C -1.826580 2.305293 -2.363441
C 3.175386 -2.007752 -0.103969
C 3.079209 -2.381456 -2.495520
C -2.482098 -1.661234 -2.878208
C 2.394962 -2.701024 -2.694687
C 2.733804 -3.161777 2.490706
C -0.531792 2.343869 -0.505166
C 1.643683 -1.487609 -2.715468
C -2.820341 2.846327 2.329645
C 2.706764 3.019802 3.268363
C -2.801076 2.872394 1.830283
C -2.644385 -2.960635 2.157836
C -3.075099 2.545545 2.464424
C 2.899380 2.938406 1.427526
C -1.963175 2.798252 -1.681214
