60
Generated C60 structure
C 0.505351 -2.380629 -2.536496
C -2.755672 2.554512 1.397720
C -1.786580 -1.035536 2.018533
C -0.588686 2.671139 -2.943069
C -2.973948 1.674101 -2.934112
C 2.276950 -1.803576 -2.687279
C 0.792915 2.168343 -3.050076
C -0.272798 2.645588 -1.576611
C -2.733696 -2.334555 2.932482
C 2.899917 -0.331761 -0.444723
C 1.465920 -2.009714 2.305720
C 2.404162 2.987145 1.284469
C -2.464070 -2.650304 2.621267
C 1.722891 2.358545 0.280841
C -1.621960 2.600914 -2.869636
C -2.520614 2.693038 -2.951521
C -2.932837 1.772498 -2.592818
C -1.354189 2.629677 -2.500152
C -3.026705 -2.104090 2.481021
C 2.491687 -3.230924 -2.658040
C -2.107926 -2.109407 -2.128116
C 2.633079 2.556875 3.010832
C -2.678690 2.788920 2.730520
C 2.910526 2.165483 2.767789
C -3.029804 3.114118 2.009634
C -0.929418 2.351824 0.885466
C 2.762678 2.516820 2.721118
C 2.594213 2.839738 -0.788444
C -2.453589 -2.708892 2.897288
C 2.206694 -1.852891 -2.139247
C 2.659816 -2.493752 2.071841
C 3.099506 2.616843 -3.224994
C 3.010147 1.251086 -2.262518
C 3.098112 -2.921964 0.760582
C -2.351616 -2.527534 0.890246
C -2.061795 -1.431302 2.611471
C 1.100268 2.666405 1.968114
C 0.238845 -1.860240 2.804955
C 3.295238 -2.832595 1.894523
C -2.831482 -0.809748 -3.133533
C -3.053184 2.508390 -2.730654
C -2.695059 -2.851720 2.429891
C 2.018490 -2.846611 -2.799221
C -2.945547 -2.670171 -2.846111
C -0.764385 -2.670796 -2.419783
C 2.529599 -3.058202 2.852116
C -2.379940 -2.521077 2.780840
C 0.529335 -1.428813 -2.786305
C -1.821643 0.548636 -1.262360
C -2.265199 2.395674 2.467715
C -3.031824 -2.910090 2.537956
C 2.766024 0.888049 0.472893
C -2.874484 1.986559 -2.839581
C 2.712428 0.854576 2.860173
C -2.510006 -2.665294 -1.331766
C -0.267346 0.482701 -3.203296
C 2.444817 2.537907 -2.861710
C -2.328774 1.444681 3.043098
C -2.606631 0.767544 -3.170333
C -3.161162 -2.889396 2.251686
