60
Generated C60 structure
C -1.933093 -2.424206 2.798254
C -3.088833 2.848306 -2.794314
C 2.919243 2.842710 -2.890624
C 2.816393 -2.419809 -0.171400
C 2.216877 -2.412946 -1.618083
C -2.632082 2.273100 -1.752965
C 2.680363 -2.046078 -2.419579
C -1.429274 -0.507638 0.017808
C 2.571801 -2.117570 -2.088816
C 2.390033 -2.647509 1.090128
C -2.667056 -1.851820 1.777752
C -2.894369 -2.247760 -2.451942
C 2.254367 -0.238045 2.320171
C -1.807735 2.743076 1.677670
C -1.580842 -0.310267 -2.809661
C 2.105815 -2.864878 -1.502044
C -2.747270 -2.709915 2.385720
C 2.363338 -2.766903 1.850446
C 2.991463 2.851069 -3.091934
C -1.621965 2.185402 -3.103298
C 1.563895 -2.310458 2.878264
C -2.723225 -0.026652 -1.471166
C -1.038187 -2.923183 -2.782970
C 3.059695 -3.065993 -3.165259
C 3.028501 -2.860626 0.587275
C -1.823139 0.134635 2.900412
C -3.087540 3.170355 -3.185651
C 0.915795 -0.591675 0.930702
C -0.361395 3.042645 -2.257023
C -0.479210 2.884575 -2.594292
C 2.303279 -2.542006 2.644826
C -1.960580 2.747987 -2.400266
C -3.013225 2.498475 -2.792406
C -2.911919 3.032469 2.519891
C -2.246772 -0.650421 1.873432
C -2.722215 -2.701961 -1.114964
C -2.875729 1.365420 2.809556
C -2.809310 -2.360320 -3.054296
C -2.889170 2.962255 2.015109
C 2.967032 2.625542 -1.799907
C 2.832790 -2.999404 -0.966261
C 2.057732 1.444376 -2.838892
C 3.134086 -2.062995 2.783714
C -2.637020 -3.012799 -1.193156
C -2.055813 -1.703780 2.312254
C -2.076154 2.845690 2.478488
C -2.645815 -2.670421 -1.860419
C 3.087519 2.647147 -2.405743
C -2.488086 -0.269361 1.502284
C -1.471183 2.355694 -2.116051
C 3.088571 1.359117 -2.024841
C 3.007456 2.853726 -0.619736
C -1.070957 2.981379 2.688787
C 1.535314 -2.723835 -2.265015
C -2.506595 2.690438 -2.733567
C -2.814516 2.863963 -2.684733
C -2.679454 -2.394406 -2.583466
C -1.928785 0.685327 -3.058637
C 1.633003 2.206078 -1.341515
C -2.926162 2.252501 1.873242
