60
Generated C60 structure
C 2.230603 2.291565 -2.432511
C 1.515797 -2.285348 -2.002905
C -1.636914 2.076348 -1.964443
C -1.748659 -2.891507 1.873205
C -1.387451 2.920247 2.550719
C -2.601900 0.003245 -2.585485
C -1.014457 2.995417 -2.635521
C 2.838675 2.366451 -2.397723
C 2.918108 2.793860 -3.038378
C -2.045218 -2.809802 2.081438
C -2.602237 1.925641 -2.932227
C -2.925661 -1.969044 0.822765
C 1.673549 2.267427 -1.341858
C -2.379496 3.173412 2.486899
C -2.972568 2.140838 2.587032
C -1.988240 -2.504519 2.815316
C -2.901817 -2.670238 0.723791
C 2.572468 2.753743 -2.596889
C 1.609480 -1.978494 -1.866750
C 2.648656 2.431212 -2.252098
C 2.642743 -2.838771 -3.081904
C 0.171672 0.967399 -2.568639
C -2.972746 2.983958 -2.793565
C 2.579450 -2.715835 -1.064190
C -2.055757 1.433380 -2.354602
C -2.824219 2.578217 2.937836
C -0.717346 2.546124 2.583606
C -2.345704 2.484857 3.016967
C 2.869877 2.500439 1.335508
C 2.452573 0.809814 3.004291
C 2.090582 -2.206737 -2.420444
C 1.130145 -3.207718 1.755840
C 2.988744 2.660482 -1.270622
C 2.695843 2.814657 -1.985545
C 2.395949 2.330044 3.212867
C 2.429269 -2.510912 -2.086011
C -2.526392 -0.466927 -2.829279
C -2.950361 2.454031 -2.643639
C 2.564853 -2.851862 3.114741
C -2.647678 -1.575396 3.069172
C 2.019204 -2.970601 -2.677317
C 1.874489 -2.930979 2.499812
C 2.733585 -0.753208 3.049972
C 2.793468 -1.232838 -2.968855
C -2.630791 -2.699514 -2.924465
C 2.823097 2.669453 1.262232
C -1.437568 -2.523086 -0.381343
C -1.189881 0.040408 -2.177892
C 1.811109 1.199176 -2.925849
C 0.018048 -2.264552 -2.821937
C 2.498472 2.529629 -2.889026
C 1.423334 -1.669876 1.825295
C -2.983435 2.034103 -1.899528
C -2.664125 -2.389360 -2.728937
C -2.917450 -2.640690 -0.461719
C 2.412983 -0.943908 -0.976801
C 1.647829 2.444767 -2.877648
C -2.039529 -0.690588 -3.096614
C -3.072298 3.055811 3.185808
C 2.940110 2.736533 2.684412
