60
Generated fullerene structure
C 2.999502 2.999502 0.651057 0 1 2 3
C 2.939698 2.988748 -2.999502 1 0 2 3
C -2.999502 2.999502 -1.142819 2 0 1 3
C 2.999502 2.998978 -2.682157 3 0 1 2
C -2.999502 -2.999502 -2.999502 4 5 6 7
C 2.997582 -2.999502 -1.760780 5 4 6 7
C 0.872836 -1.549013 2.999502 6 4 5 7
C -2.999502 -2.658134 2.770120 7 4 5 6
C -2.380592 -2.999502 2.999502 8 9 10 11
C -2.741136 1.745254 2.999502 9 8 10 11
C 2.824793 -2.939622 2.999502 10 8 9 11
C 0.769872 2.940977 2.999502 11 8 9 10
C 2.999502 2.999502 0.464749 12 13 14 15
C -2.999502 0.674268 2.999502 13 12 14 15
C 1.744943 -2.999502 2.999502 14 12 13 15
C -2.999502 -2.999502 -2.600985 15 12 13 14
C 2.999502 -0.856224 2.999502 16 17 18 19
C 2.586630 2.999502 -1.998216 17 16 18 19
C -2.999340 2.998109 2.999502 18 16 17 19
C -2.978087 0.010953 -2.999502 19 16 17 18
C -2.999502 -2.002817 2.394896 20 21 22 23
C -0.608526 -2.903025 2.842441 21 20 22 23
C 1.741331 -2.952502 -2.999502 22 20 21 23
C -2.999502 2.997488 -2.999502 23 20 21 22
C 2.997648 -2.903651 2.999502 24 25 26 27
C 2.999502 -2.999502 -2.738940 25 24 26 27
C 2.589162 2.999502 -1.184303 26 24 25 27
C -2.999502 2.999502 2.999502 27 24 25 26
C 2.535730 2.999502 2.753395 28 29 30 31
C -2.999502 2.999502 -2.996081 29 28 30 31
C -2.883756 -2.999502 0.673286 30 28 29 31
C -2.999502 -2.914350 -2.999502 31 28 29 30
C 2.964435 1.458259 2.751596 32 33 34 35
C -2.982291 2.999502 -1.057357 33 32 34 35
C -2.999502 -2.880079 -0.306594 34 32 33 35
C 2.964429 2.998910 -2.892895 35 32 33 34
C 2.693281 2.999502 2.999502 36 37 38 39
C -1.227289 -2.999502 2.999502 37 36 38 39
C -1.133377 2.707198 1.885458 38 36 37 39
C -2.571471 -2.999502 -2.110977 39 36 37 38
C -2.999502 2.999502 2.999502 40 41 42 43
C -2.992813 2.347376 -2.746599 41 40 42 43
C 2.886108 2.964781 2.999502 42 40 41 43
C 2.441441 2.999502 1.503238 43 40 41 42
C -2.999502 2.999502 -1.955148 44 45 46 47
C -2.999502 2.556546 2.999502 45 44 46 47
C -1.838909 -2.999502 -2.223196 46 44 45 47
C -1.687717 2.989856 2.999502 47 44 45 46
C 0.625268 -2.999502 2.919673 48 49 50 51
C 2.999502 -2.998014 -2.999502 49 48 50 51
C -2.598235 -2.888371 -2.553895 50 48 49 51
C 2.999502 2.999502 2.700732 51 48 49 50
C -2.999502 2.999502 2.999502 52 53 54 55
C -2.999502 2.964832 -0.122946 53 52 54 55
C -2.999502 -2.999502 2.980050 54 52 53 55
C -2.999502 2.999502 2.999502 55 52 53 54
C 2.539235 -2.569124 -2.933186 56 57 58 59
C -1.938220 0.025025 2.999502 57 56 58 59
C 2.999502 -1.679022 2.999502 58 56 57 59
C -2.518480 2.018661 0.251444 59 56 57 58
