60
Generated fullerene structure
C -2.999502 -0.991640 -2.999502 0 1 2 3
C 2.999502 -2.999502 2.999502 1 0 2 3
C 2.560830 2.999502 -1.736028 2 0 1 3
C -2.014455 2.997372 2.999502 3 0 1 2
C 2.999502 -1.526602 2.999502 4 5 6 7
C -2.999502 2.919401 2.105817 5 4 6 7
C -2.914412 2.942991 2.999502 6 4 5 7
C 2.999502 2.999502 -2.999502 7 4 5 6
C 2.999502 2.936571 -2.957461 8 9 10 11
C 0.043904 -0.507802 2.302731 9 8 10 11
C -2.999502 2.413872 -2.999502 10 8 9 11
C -2.999502 1.881131 2.999502 11 8 9 10
C 2.221449 -2.999502 -0.183141 12 13 14 15
C -2.862577 -2.999502 2.999502 13 12 14 15
C -1.917616 2.993401 2.573659 14 12 13 15
C -2.999502 -2.340069 0.058379 15 12 13 14
C -2.999502 2.999502 1.640172 16 17 18 19
C -2.999502 -2.999502 -2.988079 17 16 18 19
C 2.988073 0.213956 -1.800607 18 16 17 19
C -2.999502 -1.371822 2.860523 19 16 17 18
C -1.250304 2.959674 2.775887 20 21 22 23
C 1.593845 2.657897 -1.220229 21 20 22 23
C -2.999502 2.993531 2.474809 22 20 21 23
C -2.999502 2.999502 2.999502 23 20 21 22
C -2.999502 0.896367 -0.305539 24 25 26 27
C -2.896946 -2.999502 2.999502 25 24 26 27
C 0.578678 2.729924 2.727587 26 24 25 27
C 2.923072 -2.725024 -2.999502 27 24 25 26
C -2.999502 2.834021 2.611234 28 29 30 31
C -2.425560 -2.999502 0.171333 29 28 30 31
C -1.901262 2.983129 1.566625 30 28 29 31
C -2.999502 -2.999502 -2.999502 31 28 29 30
C 2.828412 -2.359122 -2.721913 32 33 34 35
C 2.280479 -1.070971 2.999502 33 32 34 35
C 2.999502 -2.992321 2.643861 34 32 33 35
C 1.179000 -2.999502 2.999502 35 32 33 34
C -2.999502 -2.999502 2.997374 36 37 38 39
C 2.999502 -2.999502 -2.757872 37 36 38 39
C -2.999502 2.999502 -2.999502 38 36 37 39
C -2.999502 -2.999502 2.999502 39 36 37 38
C 2.999502 -2.250803 -2.990850 40 41 42 43
C 2.999502 0.055032 -0.481473 41 40 42 43
C -0.578996 -2.331181 -2.999502 42 40 41 43
C 0.562775 0.734895 2.999502 43 40 41 42
C -2.999502 2.999502 2.999502 44 45 46 47
C 1.002690 2.682837 -2.995084 45 44 46 47
C -2.999502 2.994973 2.593347 46 44 45 47
C 2.536632 2.128917 2.999502 47 44 45 46
C -0.682378 2.431766 -2.999502 48 49 50 51
C 2.991632 2.668688 -2.992813 49 48 50 51
C -2.992960 2.999502 -2.999502 50 48 49 51
C -2.999502 -2.392774 1.072170 51 48 49 50
C -2.960894 2.999502 -2.901160 52 53 54 55
C -2.999502 -2.668977 2.999502 53 52 54 55
C -2.999502 2.999502 2.616087 54 52 53 55
C 1.493242 -0.564030 -2.939833 55 52 53 54
C -2.999502 -0.104829 -2.999502 56 57 58 59
C 2.999502 -2.999502 2.987856 57 56 58 59
C -2.964156 -2.415222 2.928269 58 56 57 59
C -2.999502 2.999502 -2.999502 59 56 57 58
