60
Generated fullerene structure
C -0.547732 -2.993334 -2.472212 0 1 2 3
C -2.998308 2.970999 -2.368807 1 0 2 3
C 2.999502 -2.985657 -1.380645 2 0 1 3
C 2.187798 2.043741 -2.999502 3 0 1 2
C 2.916135 -1.306393 -2.999502 4 5 6 7
C 2.981436 2.985026 -2.999502 5 4 6 7
C 2.999502 -2.913351 2.999502 6 4 5 7
C -2.999502 2.997714 2.184735 7 4 5 6
C 2.961820 2.983903 -2.999502 8 9 10 11
C 2.999502 -2.999502 -2.999502 9 8 10 11
C -2.987534 -0.093040 2.999502 10 8 9 11
C 2.999502 1.976815 -2.999502 11 8 9 10
C -2.992870 -0.338538 2.716216 12 13 14 15
C -2.048582 2.999502 -2.999502 13 12 14 15
C 1.226288 2.005838 -2.176135 14 12 13 15
C 2.828423 -2.879098 -2.995914 15 12 13 14
C -2.998926 2.639515 2.993999 16 17 18 19
C 2.999502 2.999502 0.670123 17 16 18 19
C -2.922379 2.048333 2.033952 18 16 17 19
C -2.963257 -2.991156 2.999502 19 16 17 18
C -2.999502 0.206446 2.999502 20 21 22 23
C 2.746595 -2.627663 -0.562382 21 20 22 23
C 1.819502 0.787329 1.195866 22 20 21 23
C -2.573109 -2.677305 2.995166 23 20 21 22
C -2.994492 -2.999452 -2.999502 24 25 26 27
C -2.999502 2.997785 2.999502 25 24 26 27
C -2.202758 -2.981163 1.901094 26 24 25 27
C 1.937714 2.999502 2.999502 27 24 25 26
C -2.999502 -2.833219 2.999502 28 29 30 31
C 2.999502 -2.965622 2.999502 29 28 30 31
C 2.963917 2.997873 -2.995428 30 28 29 31
C -2.999443 2.564196 2.436825 31 28 29 30
C 0.701424 0.786976 -2.999502 32 33 34 35
C -2.999502 2.995907 -2.999502 33 32 34 35
C -1.030417 -2.943880 2.989445 34 32 33 35
C 2.953073 -2.999502 -2.991333 35 32 33 34
C -2.999502 -2.133404 2.999502 36 37 38 39
C -2.998044 2.997253 -0.748675 37 36 38 39
C 2.178240 2.946297 2.994707 38 36 37 39
C 0.605967 -2.999502 -2.944994 39 36 37 38
C 2.999502 -2.999502 -2.999502 40 41 42 43
C -2.868767 -2.999502 -2.982388 41 40 42 43
C -2.999502 -1.000288 -2.999502 42 40 41 43
C 2.998641 2.999502 -2.780155 43 40 41 42
C 2.999502 -2.277927 2.999502 44 45 46 47
C 2.241237 -2.999418 -0.169126 45 44 46 47
C 2.999502 2.999502 -2.999502 46 44 45 47
C 2.580133 -2.999502 -2.999502 47 44 45 46
C -0.101792 -2.999502 2.996177 48 49 50 51
C 2.958247 -2.043421 -2.999502 49 48 50 51
C 2.268712 -1.707352 -2.999502 50 48 49 51
C -2.259588 -2.999496 2.884665 51 48 49 50
C -2.999502 -0.920051 2.997463 52 53 54 55
C 2.161338 0.511968 -2.330158 53 52 54 55
C -2.999502 -2.985988 -0.985164 54 52 53 55
C 2.998914 2.999502 -2.999502 55 52 53 54
C -0.986167 2.999502 -2.999502 56 57 58 59
C 2.969516 -2.959988 2.979634 57 56 58 59
C -2.999502 2.999502 -1.845996 58 56 57 59
C -2.999502 -2.618104 2.996726 59 56 57 58
