60
Generated fullerene structure
C -2.999502 -0.451021 -2.912395 0 1 2 3
C -2.999502 1.727529 2.880009 1 0 2 3
C -0.717808 -2.488176 2.999502 2 0 1 3
C 2.999502 0.751885 -2.999502 3 0 1 2
C -2.866962 -1.485918 -2.999502 4 5 6 7
C -2.999502 2.999502 2.085626 5 4 6 7
C -0.873427 0.255455 2.999502 6 4 5 7
C -2.590710 1.617182 -2.999502 7 4 5 6
C -1.273681 -1.449216 2.999502 8 9 10 11
C -1.246609 2.765080 -2.999502 9 8 10 11
C 2.885393 -2.999502 -2.569847 10 8 9 11
C 2.999502 2.999502 2.956615 11 8 9 10
C 2.997376 1.462980 2.999502 12 13 14 15
C 2.849776 -2.998656 -0.667030 13 12 14 15
C -2.999502 -2.999502 -1.191793 14 12 13 15
C -2.490342 -0.879225 2.998394 15 12 13 14
C 0.809916 -2.911532 2.986071 16 17 18 19
C -2.999502 -2.999502 -2.998104 17 16 18 19
C -2.999502 2.999502 2.999502 18 16 17 19
C -2.989058 -0.346924 -0.330559 19 16 17 18
C -2.999502 2.999502 -1.959927 20 21 22 23
C 2.999502 2.761434 2.999502 21 20 22 23
C -2.999502 -2.999502 2.999502 22 20 21 23
C 2.993375 -1.747946 -2.994957 23 20 21 22
C -2.726333 2.999502 -2.999502 24 25 26 27
C 2.999502 -2.688095 -2.950972 25 24 26 27
C -2.999502 1.245427 -1.844398 26 24 25 27
C -2.999502 -2.967161 -2.426185 27 24 25 26
C -0.208082 -2.990602 2.999502 28 29 30 31
C 2.999502 -2.994765 1.133142 29 28 30 31
C 2.999502 0.853710 2.988223 30 28 29 31
C -2.964015 0.310234 2.999502 31 28 29 30
C -2.999502 0.491614 2.999502 32 33 34 35
C -2.999502 -2.997523 2.417847 33 32 34 35
C -2.977662 -2.999502 -2.131162 34 32 33 35
C -2.999452 -2.999502 -2.999502 35 32 33 34
C -2.950816 -2.985081 -2.999502 36 37 38 39
C -2.999502 -2.049611 2.945222 37 36 38 39
C 2.999502 2.999502 2.718270 38 36 37 39
C 1.144582 -2.999502 2.999502 39 36 37 38
C -2.999502 2.999502 2.999502 40 41 42 43
C 2.319667 2.999502 -1.641235 41 40 42 43
C 2.143300 2.771611 2.999502 42 40 41 43
C 2.645546 2.993016 2.611923 43 40 41 42
C -2.999502 2.999502 1.750212 44 45 46 47
C 0.146421 2.999502 2.999502 45 44 46 47
C -2.999502 -1.707443 2.468494 46 44 45 47
C -2.999502 2.999502 -2.980159 47 44 45 46
C -0.339785 2.995720 -2.999502 48 49 50 51
C 2.538192 -2.999502 -2.154644 49 48 50 51
C 2.999502 -0.218716 -2.772696 50 48 49 51
C -2.999502 2.999502 -2.999502 51 48 49 50
C 1.494628 2.999502 2.999220 52 53 54 55
C 1.567973 0.643613 2.999502 53 52 54 55
C 2.999502 2.999502 -2.996951 54 52 53 55
C 2.984220 -2.986032 2.997657 55 52 53 54
C 2.999502 2.999502 2.999502 56 57 58 59
C 2.939880 2.999502 -2.999502 57 56 58 59
C -2.844358 1.716394 -2.999502 58 56 57 59
C 2.999502 2.930847 -2.999502 59 56 57 58
