60
Generated fullerene structure
C -2.999502 2.512950 -2.880792 0 1 2 3
C -2.420213 2.999502 2.973837 1 0 2 3
C 2.898656 2.999502 2.999502 2 0 1 3
C 2.986337 -1.443195 -2.991746 3 0 1 2
C -2.970299 -2.899752 2.999502 4 5 6 7
C -2.992244 -2.999502 -2.999502 5 4 6 7
C 0.472079 -2.999502 -2.999502 6 4 5 7
C -2.999502 -2.999502 -2.999502 7 4 5 6
C -1.119207 2.999502 2.999502 8 9 10 11
C -1.755773 -2.136360 1.797177 9 8 10 11
C -2.999502 -2.999502 -2.999502 10 8 9 11
C -2.999502 1.423203 -2.999502 11 8 9 10
C 2.934731 -2.999502 -2.999502 12 13 14 15
C 0.347572 2.999502 -2.294847 13 12 14 15
C -2.999502 -2.999502 -2.669887 14 12 13 15
C 2.999502 -2.957406 -2.896355 15 12 13 14
C -2.999502 -2.628914 1.571322 16 17 18 19
C -1.010838 0.507045 -2.995648 17 16 18 19
C -2.999502 2.999502 -2.876454 18 16 17 19
C 0.564505 2.672276 2.999502 19 16 17 18
C 1.188799 -2.999502 2.963860 20 21 22 23
C -2.999502 2.999502 2.061293 21 20 22 23
C -2.973444 -2.962426 2.997937 22 20 21 23
C -2.997565 -2.474813 -1.821922 23 20 21 22
C -2.999502 2.999502 2.999502 24 25 26 27
C 2.999502 -2.999502 0.917184 25 24 26 27
C 1.029649 2.654305 -2.999502 26 24 25 27
C -2.992060 2.045124 -1.400397 27 24 25 26
C -2.999502 2.517348 2.999502 28 29 30 31
C -2.992949 -2.984789 2.959090 29 28 30 31
C 2.999502 2.387420 1.623674 30 28 29 31
C -0.701849 -2.998357 -2.319782 31 28 29 30
C 1.629637 -2.999502 1.162560 32 33 34 35
C 2.999502 2.999502 -2.999502 33 32 34 35
C -2.999502 -1.179751 1.445678 34 32 33 35
C 2.999502 2.995049 2.461525 35 32 33 34
C -2.999502 1.945855 -2.994335 36 37 38 39
C -2.999502 -2.801634 2.999502 37 36 38 39
C 2.779415 2.990339 -2.870831 38 36 37 39
C -2.999502 -2.999502 -2.884510 39 36 37 38
C 1.138529 -2.694904 2.999502 40 41 42 43
C -2.941074 -0.326254 -2.979643 41 40 42 43
C -2.999502 -2.939588 2.999502 42 40 41 43
C 2.999502 -2.999502 -2.999502 43 40 41 42
C 2.976972 2.999502 -2.977009 44 45 46 47
C 2.999502 2.975481 2.903677 45 44 46 47
C 2.999502 -0.181713 1.840037 46 44 45 47
C -2.884466 2.999502 2.999502 47 44 45 46
C 2.996059 -2.903710 2.577059 48 49 50 51
C -2.999502 -2.999502 2.971520 49 48 50 51
C 2.999502 2.999502 2.736646 50 48 49 51
C 2.260372 -2.980396 2.999502 51 48 49 50
C 2.999502 -2.984257 1.811518 52 53 54 55
C -2.989548 2.999502 -1.815997 53 52 54 55
C -1.699101 -2.999502 0.269644 54 52 53 55
C 2.992202 -2.999502 2.331938 55 52 53 54
C 2.999502 -2.999502 -0.974402 56 57 58 59
C -2.999502 -1.216408 -2.637534 57 56 58 59
C -0.095475 -0.144779 2.999502 58 56 57 59
C -2.992368 -2.131836 2.999502 59 56 57 58
