60
Generated fullerene structure
C -2.999502 2.999052 -2.999502 0 1 2 3
C 2.990716 -2.999502 -2.996136 1 0 2 3
C 2.999502 2.666051 0.586900 2 0 1 3
C -2.999502 2.999502 2.999502 3 0 1 2
C 2.991094 -0.927413 2.363825 4 5 6 7
C -2.999502 -2.999502 2.080945 5 4 6 7
C 0.140874 2.995575 2.999502 6 4 5 7
C -2.999502 -2.664087 0.888614 7 4 5 6
C 1.059112 -2.233027 2.999502 8 9 10 11
C 2.861558 -2.923347 -2.999502 9 8 10 11
C -0.864339 0.335046 1.819681 10 8 9 11
C -2.999502 2.969234 2.999502 11 8 9 10
C 2.905339 -2.997675 -2.596596 12 13 14 15
C 0.043922 -0.918220 2.999502 13 12 14 15
C -1.774060 -2.999502 -2.976802 14 12 13 15
C 0.803552 2.999502 -2.937586 15 12 13 14
C 2.184888 -2.674675 2.999502 16 17 18 19
C 2.230843 -2.965382 2.999502 17 16 18 19
C -2.999502 -2.999502 -2.941227 18 16 17 19
C 2.219668 -2.998040 -2.298167 19 16 17 18
C 2.998309 2.999502 2.213793 20 21 22 23
C -2.999502 -0.091868 -1.890972 21 20 22 23
C 2.995930 1.264901 -2.229424 22 20 21 23
C -2.469112 -1.087171 2.994476 23 20 21 22
C -2.941578 -2.999502 2.649953 24 25 26 27
C 2.998706 2.993896 0.513075 25 24 26 27
C -2.999502 2.982871 -0.759181 26 24 25 27
C -2.991606 -2.999502 -1.586875 27 24 25 26
C -2.862836 -0.864954 -2.999502 28 29 30 31
C 2.972311 2.984358 2.999502 29 28 30 31
C -1.959662 -2.999502 -0.904682 30 28 29 31
C -2.999502 -2.950018 -2.999502 31 28 29 30
C -2.083137 2.999502 2.987364 32 33 34 35
C 2.999502 2.726490 -1.316941 33 32 34 35
C -2.999502 -2.688448 2.999502 34 32 33 35
C 2.999502 -1.721595 -0.979685 35 32 33 34
C 2.999502 1.544910 -2.019326 36 37 38 39
C 2.999502 -2.999502 -2.069018 37 36 38 39
C -0.443671 -2.218034 -1.487484 38 36 37 39
C 2.999502 -2.952054 -2.910911 39 36 37 38
C 2.998706 2.999502 2.999502 40 41 42 43
C 2.400413 -2.945735 1.113625 41 40 42 43
C 2.993004 -2.936181 1.420521 42 40 41 43
C 2.999502 2.999502 -0.361046 43 40 41 42
C -2.541331 -2.831540 1.980438 44 45 46 47
C -2.999502 2.733305 -1.876108 45 44 46 47
C -2.997486 2.999502 2.999502 46 44 45 47
C 2.999502 -2.999502 2.999502 47 44 45 46
C 2.965378 1.865419 -2.999502 48 49 50 51
C -1.950256 2.095619 -2.595088 49 48 50 51
C 0.802902 2.999502 -0.692656 50 48 49 51
C -2.999502 -2.999502 2.994916 51 48 49 50
C -2.999502 2.999502 2.999502 52 53 54 55
C -2.964261 -2.999502 2.999502 53 52 54 55
C -2.985834 -0.089005 -2.781929 54 52 53 55
C -1.672245 -1.014123 2.999502 55 52 53 54
C -2.995227 -2.630972 -2.999502 56 57 58 59
C 2.999502 1.512976 2.683925 57 56 58 59
C -2.999502 -2.999502 2.847660 58 56 57 59
C 2.999502 -2.989201 2.999502 59 56 57 58
