60
Generated fullerene structure
C -2.992923 2.999502 1.135919 0 1 2 3
C 1.259216 -2.582891 2.999502 1 0 2 3
C -2.999502 -2.999502 2.998982 2 0 1 3
C 2.999502 2.999502 -1.071616 3 0 1 2
C -2.999502 -2.999502 -1.297848 4 5 6 7
C 2.999502 -2.999502 2.996390 5 4 6 7
C 2.999502 2.167763 2.987040 6 4 5 7
C 2.999502 -2.999502 2.999502 7 4 5 6
C -2.999502 2.999502 0.675140 8 9 10 11
C 2.927651 -2.351098 2.999502 9 8 10 11
C -2.999384 -2.013633 -0.197717 10 8 9 11
C 2.975990 2.924082 1.928085 11 8 9 10
C 2.999502 -2.108743 -2.999502 12 13 14 15
C 2.315068 -2.999502 2.044634 13 12 14 15
C 2.999502 -2.755812 2.999502 14 12 13 15
C 2.999502 -2.999502 -1.464818 15 12 13 14
C -2.250838 2.997127 2.999502 16 17 18 19
C -2.872725 2.999502 1.082140 17 16 18 19
C -2.999502 -0.443116 2.999502 18 16 17 19
C -2.984821 -2.999502 -1.422954 19 16 17 18
C -2.999502 2.999502 -2.999502 20 21 22 23
C -2.999502 -2.999502 -0.894504 21 20 22 23
C -2.999502 2.999502 2.994020 22 20 21 23
C 2.999502 -2.999502 -2.999502 23 20 21 22
C -2.999502 2.999502 2.998580 24 25 26 27
C -2.975044 -2.972974 -2.999502 25 24 26 27
C -2.999502 2.870732 2.999502 26 24 25 27
C -2.999502 2.999502 2.998313 27 24 25 26
C -2.131185 -2.510409 0.822778 28 29 30 31
C 2.999502 -2.999502 2.999502 29 28 30 31
C -2.999502 -2.999502 -2.999502 30 28 29 31
C 1.644178 2.999502 -2.360950 31 28 29 30
C 1.607007 2.999502 -0.288473 32 33 34 35
C -2.999502 -0.235237 2.942672 33 32 34 35
C -2.999502 2.967582 -0.923457 34 32 33 35
C -2.999502 -2.999502 2.999502 35 32 33 34
C 2.998529 -2.444784 -2.078225 36 37 38 39
C -2.911641 2.999502 2.999502 37 36 38 39
C 0.564895 -2.998608 2.999502 38 36 37 39
C -0.927121 2.115990 -2.989426 39 36 37 38
C -2.992862 1.509254 2.999502 40 41 42 43
C 0.665487 -0.990986 0.481074 41 40 42 43
C 2.643296 2.036227 2.999502 42 40 41 43
C -2.027238 2.905122 -2.999502 43 40 41 42
C -1.179234 2.693057 2.999502 44 45 46 47
C 1.353524 0.186436 -2.989140 45 44 46 47
C 2.999502 -2.999502 2.936636 46 44 45 47
C -2.999502 2.999502 2.999502 47 44 45 46
C -0.080381 -2.999502 0.552790 48 49 50 51
C 2.999502 -0.655087 2.999502 49 48 50 51
C -2.984448 2.926724 2.999502 50 48 49 51
C 2.999502 -2.999502 -2.999502 51 48 49 50
C 2.994168 2.999502 2.999502 52 53 54 55
C 2.999502 -0.561611 2.999502 53 52 54 55
C -2.999502 2.999502 2.999502 54 52 53 55
C 2.999502 -2.999502 2.999502 55 52 53 54
C -2.999502 -2.999502 2.701855 56 57 58 59
C 2.999502 -2.999502 0.660168 57 56 58 59
C -2.152210 2.999502 2.999502 58 56 57 59
C -1.618773 2.999502 2.999502 59 56 57 58
