60
Generated fullerene structure
C 1.827633 2.998128 2.999502 0 1 2 3
C -1.392618 2.112999 2.559591 1 0 2 3
C -2.195459 1.938429 -2.675591 2 0 1 3
C -2.997344 2.977002 2.999502 3 0 1 2
C 2.997780 -2.934721 -2.646766 4 5 6 7
C -2.999502 2.999502 2.981328 5 4 6 7
C 1.604697 -2.999502 2.999502 6 4 5 7
C 2.990163 2.960217 2.999502 7 4 5 6
C -2.999502 -0.744905 -2.985114 8 9 10 11
C 2.785412 1.836901 0.955136 9 8 10 11
C 2.999502 2.999502 2.999502 10 8 9 11
C 2.769401 -2.999502 2.999502 11 8 9 10
C -2.994110 -1.437358 -2.999502 12 13 14 15
C -2.713253 2.599239 2.999502 13 12 14 15
C 2.988441 2.506789 -2.999502 14 12 13 15
C -2.999502 -2.940241 -2.991749 15 12 13 14
C -2.183605 -2.999502 2.999502 16 17 18 19
C -2.981301 -1.770165 2.999216 17 16 18 19
C 2.999502 -2.999502 2.999502 18 16 17 19
C -0.016177 0.818141 2.992116 19 16 17 18
C 2.999502 2.351300 2.134082 20 21 22 23
C -2.999502 -1.924743 2.999502 21 20 22 23
C -2.999502 2.999502 -0.870447 22 20 21 23
C -2.340321 -0.667947 -2.938326 23 20 21 22
C -0.668435 2.999502 2.999502 24 25 26 27
C -2.999502 2.999502 1.838721 25 24 26 27
C -2.999502 2.810000 -0.432437 26 24 25 27
C 2.999502 -2.999502 2.986567 27 24 25 26
C -2.804310 2.826177 2.993057 28 29 30 31
C 2.165565 2.999502 -2.999502 29 28 30 31
C -2.967660 -0.681502 2.834651 30 28 29 31
C -2.970775 -1.407351 2.999502 31 28 29 30
C -2.999502 2.999502 2.999502 32 33 34 35
C -2.758698 -2.999502 1.701404 33 32 34 35
C -2.996292 1.694439 2.371406 34 32 33 35
C 2.999502 -2.493065 2.999502 35 32 33 34
C -2.999502 -2.993010 -2.996856 36 37 38 39
C -2.999502 2.999502 2.987534 37 36 38 39
C 2.999502 2.746661 2.999502 38 36 37 39
C 2.999502 -2.891643 2.999502 39 36 37 38
C 2.999502 0.327030 -0.164614 40 41 42 43
C -2.985085 -1.211426 -2.403184 41 40 42 43
C -0.642342 -2.999502 -2.999502 42 40 41 43
C 2.967927 2.141163 -2.984772 43 40 41 42
C -0.936252 2.999502 -2.999502 44 45 46 47
C -2.999502 2.951981 -1.115044 45 44 46 47
C -1.343121 2.999502 2.950962 46 44 45 47
C 2.956862 -2.974341 -2.999502 47 44 45 46
C -1.269235 -1.586454 2.999502 48 49 50 51
C 2.999502 2.999502 2.727877 49 48 50 51
C -2.999502 2.999502 -2.521731 50 48 49 51
C -2.885860 -2.999502 2.999502 51 48 49 50
C 2.999502 2.999502 1.125137 52 53 54 55
C 2.999502 -2.649757 -2.999502 53 52 54 55
C 1.900732 2.990296 2.999502 54 52 53 55
C 2.999502 -2.999502 -2.999502 55 52 53 54
C 1.851750 2.999502 2.999502 56 57 58 59
C -2.999502 -2.999502 -2.999502 57 56 58 59
C 2.999502 -2.999502 2.999502 58 56 57 59
C 2.999502 -2.999502 2.990021 59 56 57 58
