60
Generated fullerene structure
C 1.012915 2.596078 2.999502 0 1 2 3
C 2.999502 2.999502 -2.999502 1 0 2 3
C 2.990390 2.999502 2.198365 2 0 1 3
C 2.967604 2.999502 -2.980376 3 0 1 2
C 1.784258 2.999502 -2.991558 4 5 6 7
C -1.044665 0.830666 2.999502 5 4 6 7
C -0.186018 -2.999502 2.007656 6 4 5 7
C -2.999502 -2.999502 -2.999502 7 4 5 6
C 2.983640 -2.999502 2.937665 8 9 10 11
C 0.476605 2.999502 2.999502 9 8 10 11
C -2.999502 -1.874922 2.998014 10 8 9 11
C -2.242384 -2.958477 2.999502 11 8 9 10
C 2.999502 -2.999502 -2.999502 12 13 14 15
C 2.984350 -0.250177 -2.999502 13 12 14 15
C -2.992335 -2.999502 2.999502 14 12 13 15
C -2.792371 -2.999502 -2.928887 15 12 13 14
C 2.967463 2.021824 1.314235 16 17 18 19
C 2.999502 -2.981485 -2.931577 17 16 18 19
C -1.089710 2.598582 -2.999502 18 16 17 19
C -2.999502 2.999502 -2.270481 19 16 17 18
C -0.800503 -2.790647 -2.987084 20 21 22 23
C 2.999502 2.998738 -0.119879 21 20 22 23
C 2.100860 2.999502 2.999502 22 20 21 23
C 2.996426 2.999502 1.011471 23 20 21 22
C -1.312705 -2.980935 -0.247566 24 25 26 27
C -0.211238 2.999502 -2.999502 25 24 26 27
C -2.999502 -2.999502 2.999502 26 24 25 27
C 1.697964 -2.420362 2.996591 27 24 25 26
C -1.391723 -2.999502 2.997371 28 29 30 31
C -2.528284 2.999502 2.480099 29 28 30 31
C -2.985111 -2.953921 2.999502 30 28 29 31
C 2.820536 -2.999502 2.999502 31 28 29 30
C 0.257970 2.999502 -2.978440 32 33 34 35
C -2.999502 1.137303 2.999502 33 32 34 35
C -2.999502 2.379353 2.988047 34 32 33 35
C 2.951222 2.999502 -2.999502 35 32 33 34
C -2.995198 2.531577 -2.920238 36 37 38 39
C -2.653244 2.999502 1.184002 37 36 38 39
C -2.999502 -1.831785 2.999502 38 36 37 39
C 2.998793 -2.999502 2.999502 39 36 37 38
C -2.999502 2.999502 -0.420842 40 41 42 43
C 2.972349 2.915024 -2.999502 41 40 42 43
C 2.999502 -2.799835 -2.774857 42 40 41 43
C -2.979641 0.774485 2.999502 43 40 41 42
C 2.982197 -2.039688 -1.348284 44 45 46 47
C -2.999502 1.413398 2.999502 45 44 46 47
C 2.999502 -2.999502 -2.976833 46 44 45 47
C -2.087694 2.999502 -2.930193 47 44 45 46
C 2.950395 2.968946 2.995526 48 49 50 51
C -2.999502 -2.999502 -2.988769 49 48 50 51
C -2.999502 2.123397 2.999502 50 48 49 51
C 2.675990 2.979897 0.664423 51 48 49 50
C -2.999502 2.993242 -2.999502 52 53 54 55
C 2.999502 -2.426533 2.999502 53 52 54 55
C 1.710110 2.957202 2.999502 54 52 53 55
C 2.963307 2.999502 1.287034 55 52 53 54
C -2.999502 2.975292 2.999502 56 57 58 59
C -2.999502 2.424953 2.152070 57 56 58 59
C -2.917250 -2.998433 2.999502 58 56 57 59
C -2.999502 2.846555 -2.527142 59 56 57 58
