60
Generated fullerene structure
C 2.999502 1.895167 0.994859 0 1 2 3
C -2.862210 -0.799946 2.999502 1 0 2 3
C 1.190083 2.999502 2.999502 2 0 1 3
C -0.052653 2.999502 -2.999502 3 0 1 2
C -1.283748 2.999502 -2.999502 4 5 6 7
C -0.866379 -0.739376 -2.999502 5 4 6 7
C 2.966476 2.993736 -2.999502 6 4 5 7
C 2.999502 1.995532 2.999502 7 4 5 6
C -2.155777 2.999502 1.772369 8 9 10 11
C -2.999502 -2.999502 2.999502 9 8 10 11
C 0.595390 -1.740361 -2.999178 10 8 9 11
C -2.999502 2.999502 -2.999502 11 8 9 10
C -2.514893 2.699814 -2.870825 12 13 14 15
C 1.957093 -2.998915 2.999502 13 12 14 15
C 2.751547 -2.998852 2.999502 14 12 13 15
C 2.999502 -2.999502 -2.999502 15 12 13 14
C -2.991616 2.992656 -2.999502 16 17 18 19
C -2.999502 -2.371933 -1.974653 17 16 18 19
C -1.057786 2.930113 2.999073 18 16 17 19
C -2.999502 -2.995472 2.999502 19 16 17 18
C -2.999502 -2.999502 -2.999502 20 21 22 23
C 1.045619 -2.999502 2.999502 21 20 22 23
C 2.763905 2.998934 -2.617507 22 20 21 23
C -2.998553 0.192891 2.944183 23 20 21 22
C -2.999502 -2.908771 2.999258 24 25 26 27
C -2.999502 -2.999502 2.998055 25 24 26 27
C 2.999339 -2.999502 2.999502 26 24 25 27
C 1.202167 2.073853 1.379002 27 24 25 26
C 2.964762 2.999502 2.999502 28 29 30 31
C 2.999502 0.239982 -2.999502 29 28 30 31
C 0.118025 2.999502 2.999502 30 28 29 31
C 2.585572 -2.999502 -2.914965 31 28 29 30
C 2.996930 2.999173 2.926786 32 33 34 35
C -2.999502 -2.999502 -2.999502 33 32 34 35
C 2.998631 -2.582776 2.999502 34 32 33 35
C 2.997351 2.999502 2.862550 35 32 33 34
C -2.999502 2.897692 -2.043659 36 37 38 39
C -2.999502 -2.469820 -2.024808 37 36 38 39
C 1.485745 -0.701460 -2.999502 38 36 37 39
C 1.284744 2.844090 -2.999502 39 36 37 38
C -2.999502 -2.999502 2.016425 40 41 42 43
C -2.999502 1.393155 2.844361 41 40 42 43
C 2.999502 -1.709320 2.999502 42 40 41 43
C -2.714334 0.444582 -1.302177 43 40 41 42
C -1.514393 -1.147138 0.612638 44 45 46 47
C -2.999502 -2.998958 -2.993315 45 44 46 47
C -0.640424 -1.599946 1.848350 46 44 45 47
C 2.997046 -1.296793 2.999502 47 44 45 46
C -2.482705 2.999502 -2.999502 48 49 50 51
C 1.225483 2.999502 -2.781469 49 48 50 51
C -2.981596 -2.999502 2.999502 50 48 49 51
C 2.999502 -2.979165 2.999502 51 48 49 50
C 2.971787 -2.999502 2.905629 52 53 54 55
C -1.688708 2.999502 0.422101 53 52 54 55
C -2.619331 2.999502 2.710874 54 52 53 55
C -1.803334 2.966537 2.999502 55 52 53 54
C -2.999502 -2.999502 2.999502 56 57 58 59
C -2.999502 -2.999502 2.999502 57 56 58 59
C -2.999502 -1.867279 2.882719 58 56 57 59
C -0.979847 2.999502 -2.997597 59 56 57 58
