60
Generated fullerene structure
C -0.244632 2.784281 2.999502 0 1 2 3
C 0.797882 -2.999502 -2.995677 1 0 2 3
C 2.681310 -2.620316 2.997955 2 0 1 3
C -2.999502 2.999502 2.999502 3 0 1 2
C 1.822587 2.999502 2.999502 4 5 6 7
C 0.233179 2.999502 -0.233506 5 4 6 7
C 2.999502 -2.999502 2.999502 6 4 5 7
C 2.511472 2.999502 -2.007346 7 4 5 6
C -2.991914 2.235104 2.999502 8 9 10 11
C 1.933369 2.999502 -0.883413 9 8 10 11
C -2.798335 1.807607 -0.238081 10 8 9 11
C -2.999502 0.773750 0.595716 11 8 9 10
C 2.427049 2.991354 -1.380011 12 13 14 15
C 2.991402 -0.923677 0.705789 13 12 14 15
C -2.999502 2.906100 2.999502 14 12 13 15
C -2.999502 2.993552 2.999502 15 12 13 14
C 2.999502 -2.888318 2.999502 16 17 18 19
C 2.999502 2.999502 2.999502 17 16 18 19
C 2.999502 2.992173 2.843838 18 16 17 19
C -2.999502 2.883379 -1.769643 19 16 17 18
C -2.932535 2.999502 -2.482535 20 21 22 23
C 1.194184 2.529189 2.893372 21 20 22 23
C -2.966903 1.916401 -1.642597 22 20 21 23
C 2.949030 2.999502 2.999502 23 20 21 22
C -2.999502 1.709804 2.999502 24 25 26 27
C 2.809537 -2.993936 2.863392 25 24 26 27
C -2.999502 2.976430 -0.126695 26 24 25 27
C 2.973361 -2.999502 -2.999502 27 24 25 26
C 2.999502 2.999502 -2.999502 28 29 30 31
C 2.768444 -2.999502 -2.623154 29 28 30 31
C -2.990597 -2.999502 2.999502 30 28 29 31
C 2.030942 1.378106 2.998744 31 28 29 30
C 2.999502 2.958031 -2.999502 32 33 34 35
C 2.617967 2.999502 0.900469 33 32 34 35
C 2.999502 2.999502 -2.999502 34 32 33 35
C -2.990425 -2.989538 -2.983906 35 32 33 34
C 1.333185 2.984613 2.988183 36 37 38 39
C 2.999502 2.724168 -1.272304 37 36 38 39
C 2.814934 -2.999502 2.655631 38 36 37 39
C 2.999502 -2.758857 -1.615378 39 36 37 38
C 2.999502 -0.672222 2.999502 40 41 42 43
C -2.999502 2.974083 2.579399 41 40 42 43
C 2.999502 0.116024 2.989933 42 40 41 43
C -1.490994 -2.999502 -2.999502 43 40 41 42
C -2.793455 -2.983975 2.912476 44 45 46 47
C -2.999502 2.999502 -2.990410 45 44 46 47
C -2.999502 -2.700745 -2.999502 46 44 45 47
C -2.999502 2.999502 1.698578 47 44 45 46
C 2.997477 0.665916 -2.999502 48 49 50 51
C 1.922672 1.464991 -2.976412 49 48 50 51
C -2.999502 2.975613 2.999502 50 48 49 51
C 1.916965 -0.839081 -0.235466 51 48 49 50
C -2.999502 2.990021 -2.999502 52 53 54 55
C 0.771241 2.996980 2.990470 53 52 54 55
C -2.952607 2.999502 -2.593250 54 52 53 55
C 2.999502 -2.974743 2.999502 55 52 53 54
C -1.652508 2.999502 -2.989214 56 57 58 59
C -2.995215 2.999502 -1.406952 57 56 58 59
C 2.999502 -2.999502 -2.999502 58 56 57 59
C 2.985760 -1.716367 2.999502 59 56 57 58
