60
Generated fullerene structure
C 2.999502 2.999502 -1.327153 0 1 2 3
C -0.763438 2.955593 0.834124 1 0 2 3
C -2.999502 2.999502 2.996681 2 0 1 3
C -2.999502 -2.995704 -2.999502 3 0 1 2
C -2.999502 2.999502 -2.999502 4 5 6 7
C 0.809755 -2.999502 1.291748 5 4 6 7
C -2.999502 1.181975 -2.781774 6 4 5 7
C 2.999502 -2.999502 -2.997560 7 4 5 6
C 2.960329 0.271715 -0.615184 8 9 10 11
C -2.999502 -2.999502 -2.841553 9 8 10 11
C -1.363955 2.974390 0.971636 10 8 9 11
C 1.938748 -2.993392 2.999502 11 8 9 10
C -1.250541 2.999502 -2.999502 12 13 14 15
C -2.743220 -2.957734 -1.370938 13 12 14 15
C 2.354291 -0.919816 2.999502 14 12 13 15
C 2.999502 -2.999502 2.961993 15 12 13 14
C 2.986294 -0.972817 2.545591 16 17 18 19
C -1.367473 2.999502 2.999502 17 16 18 19
C -2.999502 -2.959113 0.472403 18 16 17 19
C -2.999502 1.745664 2.400978 19 16 17 18
C -2.999502 -0.569367 2.999502 20 21 22 23
C -2.999502 -2.997610 -2.987055 21 20 22 23
C -1.087843 2.999502 2.980294 22 20 21 23
C 2.999502 2.999502 -2.999502 23 20 21 22
C -2.611649 -2.779890 2.999502 24 25 26 27
C -1.919503 -2.999502 2.946778 25 24 26 27
C -2.999502 2.920049 2.996233 26 24 25 27
C -2.999502 2.999502 -2.082958 27 24 25 26
C 2.999502 -2.605050 0.830936 28 29 30 31
C -2.997844 -2.098744 -1.807197 29 28 30 31
C -2.999502 0.865201 2.999502 30 28 29 31
C -2.330652 2.984478 -0.209976 31 28 29 30
C 2.978501 2.999502 -2.999502 32 33 34 35
C 0.852694 -2.999502 -2.999502 33 32 34 35
C -2.999502 -2.932560 0.044651 34 32 33 35
C 2.823672 1.349539 1.203645 35 32 33 34
C -2.999502 2.802285 -2.999502 36 37 38 39
C -2.999502 -2.314072 2.999502 37 36 38 39
C -2.993025 2.999502 2.999502 38 36 37 39
C 1.190580 -2.999502 -2.576416 39 36 37 38
C -2.999502 -2.999502 -2.715623 40 41 42 43
C 1.553997 2.968143 2.999502 41 40 42 43
C -2.999502 2.883849 -2.280210 42 40 41 43
C 2.999502 0.874458 2.999502 43 40 41 42
C 0.849856 -2.999502 -2.999502 44 45 46 47
C 2.964698 -2.999502 -2.825072 45 44 46 47
C -2.993117 2.698303 -0.454394 46 44 45 47
C -2.999502 -2.999502 1.790260 47 44 45 46
C -2.999502 2.999502 2.902393 48 49 50 51
C 2.999502 2.999502 -2.999502 49 48 50 51
C -2.999502 1.135597 2.981457 50 48 49 51
C -2.999502 2.271976 2.996222 51 48 49 50
C -2.999502 0.482904 2.969805 52 53 54 55
C -2.999502 2.999502 2.999502 53 52 54 55
C -2.941440 2.999502 -2.999502 54 52 53 55
C 2.999502 -2.225180 -0.409337 55 52 53 54
C 2.999502 2.999502 2.999502 56 57 58 59
C -2.999502 2.302203 2.999502 57 56 58 59
C -2.997137 2.999502 2.996975 58 56 57 59
C -0.260373 -2.999502 2.993864 59 56 57 58
