60
Generated fullerene structure
C 2.999502 -2.224420 2.507550 0 1 2 3
C 0.296629 2.999502 2.329951 1 0 2 3
C -1.390028 -2.296658 -2.999502 2 0 1 3
C 1.578098 2.998601 0.132365 3 0 1 2
C -2.999502 2.999502 -2.999502 4 5 6 7
C 0.378171 2.438987 -2.998715 5 4 6 7
C 2.999502 2.999502 2.963900 6 4 5 7
C 1.570200 -2.999502 1.729835 7 4 5 6
C 2.921660 2.999502 2.992312 8 9 10 11
C -2.999502 -0.859672 -2.092475 9 8 10 11
C 2.999502 2.446840 -2.997931 10 8 9 11
C -2.991064 -0.197166 2.969308 11 8 9 10
C -1.208937 0.799043 -2.999502 12 13 14 15
C -2.378058 2.861123 2.999502 13 12 14 15
C -2.990079 -0.506983 -2.999502 14 12 13 15
C -2.999502 -2.175580 2.966148 15 12 13 14
C -2.998351 -2.999502 2.637300 16 17 18 19
C -2.999502 -2.999502 2.999502 17 16 18 19
C -2.999502 -2.999502 2.676286 18 16 17 19
C 0.316921 2.999502 2.999502 19 16 17 18
C 0.122436 2.999502 -2.999502 20 21 22 23
C -2.508861 -2.987535 1.729741 21 20 22 23
C -2.999502 2.999502 1.274522 22 20 21 23
C -2.984932 2.968421 -2.999502 23 20 21 22
C 2.903343 1.022240 1.754018 24 25 26 27
C 1.687162 1.282850 -2.999502 25 24 26 27
C 2.993743 -2.826345 2.999502 26 24 25 27
C -2.943661 2.999502 -1.638102 27 24 25 26
C -2.999502 1.009076 2.999502 28 29 30 31
C 2.958966 2.999502 2.999502 29 28 30 31
C 2.788972 -2.988789 2.980277 30 28 29 31
C -2.992416 -2.999502 2.989863 31 28 29 30
C -2.441306 0.739850 -0.334912 32 33 34 35
C 2.999502 2.215221 2.999502 33 32 34 35
C -2.999502 -2.644817 2.999502 34 32 33 35
C -2.999502 -0.911089 -1.201683 35 32 33 34
C 2.956242 -0.735669 -2.724587 36 37 38 39
C 2.999502 -2.958061 -2.996807 37 36 38 39
C 2.999502 2.999502 -2.999502 38 36 37 39
C -2.999502 1.153865 2.999502 39 36 37 38
C -2.981557 -2.382595 2.999502 40 41 42 43
C -2.920126 -2.999502 0.362127 41 40 42 43
C 0.335990 -2.413059 -2.999502 42 40 41 43
C -2.999502 -2.999502 -2.999502 43 40 41 42
C -2.981403 0.321225 -2.334088 44 45 46 47
C 1.204747 -2.199597 -2.060027 45 44 46 47
C -2.993596 -2.968635 0.224998 46 44 45 47
C 2.999502 1.849613 -0.870017 47 44 45 46
C 1.794265 -2.987701 2.994992 48 49 50 51
C -2.933669 -2.999502 -0.505540 49 48 50 51
C -2.999502 2.950063 -1.523513 50 48 49 51
C -2.964570 -2.998852 -2.999502 51 48 49 50
C -2.999502 2.999502 2.999502 52 53 54 55
C -2.999502 2.999502 -2.999502 53 52 54 55
C -2.999502 2.999502 -1.354531 54 52 53 55
C 2.999502 -2.993831 -2.992300 55 52 53 54
C 1.151098 2.999502 2.999502 56 57 58 59
C 2.999502 -2.999502 -2.999502 57 56 58 59
C -2.983757 -2.999502 -2.999502 58 56 57 59
C 2.999502 2.999502 -2.962881 59 56 57 58
