60
Generated fullerene structure
C -1.562768 -2.992533 -2.999502 0 1 2 3
C -2.999502 2.999502 -2.971629 1 0 2 3
C 2.570898 -2.999502 -0.300675 2 0 1 3
C -2.999502 2.998158 2.987795 3 0 1 2
C -2.999502 2.984574 2.999361 4 5 6 7
C -2.999502 -2.719874 1.390462 5 4 6 7
C -1.406334 -2.999502 2.999502 6 4 5 7
C -2.999502 -2.427705 -2.999502 7 4 5 6
C 2.999502 2.999502 -0.713518 8 9 10 11
C 2.999502 1.983310 2.240523 9 8 10 11
C 2.995236 -2.997803 -2.978916 10 8 9 11
C 2.999502 2.823508 -2.741409 11 8 9 10
C 2.999502 2.999502 2.999502 12 13 14 15
C -0.384415 -2.996212 2.999502 13 12 14 15
C -2.943811 2.909855 -2.999502 14 12 13 15
C -2.999502 2.999502 -1.213886 15 12 13 14
C -2.999502 -2.658669 2.999502 16 17 18 19
C 2.999167 1.021288 2.998746 17 16 18 19
C 2.999502 2.095436 2.999502 18 16 17 19
C -1.443678 -2.999502 -2.989082 19 16 17 18
C 1.874480 2.212295 0.831514 20 21 22 23
C 1.640782 2.997017 2.347544 21 20 22 23
C 1.618106 2.999502 -2.999502 22 20 21 23
C -2.999502 2.999502 2.999502 23 20 21 22
C -2.999502 -1.616583 2.853574 24 25 26 27
C -2.996587 -2.999502 1.404954 25 24 26 27
C 2.943599 -2.999502 -2.997396 26 24 25 27
C 2.993736 -2.523335 2.999401 27 24 25 26
C 2.099088 2.999502 -2.999502 28 29 30 31
C -2.987870 2.868720 0.964497 29 28 30 31
C 2.999502 2.837028 -2.981740 30 28 29 31
C -1.002373 -0.968577 2.999502 31 28 29 30
C -2.999502 -2.999502 2.999502 32 33 34 35
C -2.384086 2.999502 -2.999502 33 32 34 35
C -2.999502 1.357556 2.995769 34 32 33 35
C -2.999502 1.060911 -0.027427 35 32 33 34
C -2.984399 2.999502 -2.685723 36 37 38 39
C -2.991708 -2.999502 2.999044 37 36 38 39
C -2.998403 2.999502 2.999502 38 36 37 39
C -2.999502 2.999502 -0.559884 39 36 37 38
C 2.988077 -2.971136 2.999502 40 41 42 43
C 2.999502 2.999502 2.999502 41 40 42 43
C -2.933265 -2.555504 2.402307 42 40 41 43
C 2.999502 2.999502 2.471266 43 40 41 42
C 2.999502 0.559569 2.570440 44 45 46 47
C -0.111834 -2.999502 -1.451713 45 44 46 47
C -1.643012 2.975361 1.837776 46 44 45 47
C 2.544614 -1.996923 -1.940336 47 44 45 46
C 1.057505 2.999502 2.999502 48 49 50 51
C 2.992839 -2.999502 -2.999502 49 48 50 51
C -2.999502 -2.999502 2.999502 50 48 49 51
C -2.999502 2.999502 2.999502 51 48 49 50
C 1.388194 -2.999502 -2.999502 52 53 54 55
C 2.753746 -1.253934 -2.999502 53 52 54 55
C 2.999502 -2.999502 2.999502 54 52 53 55
C -2.866446 2.985736 1.925191 55 52 53 54
C -2.860285 -2.984600 2.886118 56 57 58 59
C 2.229966 2.999502 2.999502 57 56 58 59
C -1.766318 2.999502 -1.275128 58 56 57 59
C -2.569262 -2.233864 -2.778804 59 56 57 58
