60
Generated fullerene structure
C 2.999502 2.760541 -2.974708 0 1 2 3
C 2.085356 2.999502 -2.790993 1 0 2 3
C -2.021102 -2.354468 -2.998868 2 0 1 3
C 2.999502 2.999502 -2.999502 3 0 1 2
C 2.999502 -2.999502 -0.481168 4 5 6 7
C -2.993609 -0.847071 -2.999502 5 4 6 7
C -0.499069 2.999502 2.999502 6 4 5 7
C -2.999502 2.999502 2.999502 7 4 5 6
C -2.573446 -0.645048 1.714705 8 9 10 11
C -0.568739 0.423787 -2.288377 9 8 10 11
C -2.987822 -1.142534 2.946601 10 8 9 11
C -2.963374 -2.999502 -2.992020 11 8 9 10
C -2.999502 2.599586 -2.810655 12 13 14 15
C 2.996556 2.999502 0.170964 13 12 14 15
C -0.152313 -2.999502 0.114783 14 12 13 15
C 2.799316 -2.999502 2.402262 15 12 13 14
C -2.999502 -1.070664 2.829867 16 17 18 19
C -2.573152 -1.370027 0.007796 17 16 18 19
C -2.807416 2.934996 2.999502 18 16 17 19
C -1.324735 2.999502 2.999502 19 16 17 18
C 2.999502 2.999502 1.156631 20 21 22 23
C 1.712416 2.983774 2.087430 21 20 22 23
C 2.999502 2.805444 2.872523 22 20 21 23
C -2.999502 -2.617138 2.200323 23 20 21 22
C 2.998948 -0.526387 -0.476319 24 25 26 27
C -2.908071 2.654229 0.943283 25 24 26 27
C -2.070925 2.979257 0.023609 26 24 25 27
C -2.999502 2.999502 2.999502 27 24 25 26
C -0.471505 0.452608 -2.999502 28 29 30 31
C 2.973378 2.999502 2.999502 29 28 30 31
C 2.983595 2.999502 2.997739 30 28 29 31
C -0.277937 2.999502 2.999502 31 28 29 30
C 2.871766 2.999502 2.999502 32 33 34 35
C -1.009339 -1.858567 -1.609325 33 32 34 35
C -2.686851 2.999502 2.998572 34 32 33 35
C 2.999502 1.581211 2.653451 35 32 33 34
C -2.871597 2.997523 0.115541 36 37 38 39
C -2.999502 -2.999502 2.999502 37 36 38 39
C -2.999502 2.999502 -2.999502 38 36 37 39
C -2.999502 -2.999502 -2.850875 39 36 37 38
C -2.999502 2.844429 -2.999502 40 41 42 43
C 2.384666 -2.999502 -1.504392 41 40 42 43
C 2.934096 2.999502 -2.999502 42 40 41 43
C 2.999502 -2.980316 -2.999502 43 40 41 42
C 2.999502 2.999502 2.999502 44 45 46 47
C -2.867211 2.999502 0.024470 45 44 46 47
C 2.006125 2.982452 2.821598 46 44 45 47
C 2.876797 -2.898552 0.656634 47 44 45 46
C 2.931491 0.330041 1.985311 48 49 50 51
C -2.999502 -2.996034 2.999502 49 48 50 51
C 2.999502 -2.999502 2.363015 50 48 49 51
C 2.999502 2.999502 -2.953439 51 48 49 50
C -2.999502 1.422891 2.999502 52 53 54 55
C 0.898984 2.972450 -2.999502 53 52 54 55
C -1.671507 -2.933156 2.999502 54 52 53 55
C -2.975118 2.999502 2.999502 55 52 53 54
C -2.999502 -2.873086 2.958548 56 57 58 59
C -2.999502 2.999502 2.673103 57 56 58 59
C -1.516415 2.999502 -2.999502 58 56 57 59
C -2.999502 -2.108067 2.999502 59 56 57 58
