60
Generated fullerene structure
C 2.999502 2.999502 -0.478998 0 1 2 3
C -2.999502 -0.151506 -2.999502 1 0 2 3
C -2.985860 -2.999502 -1.120416 2 0 1 3
C -2.999502 -2.999502 -1.389835 3 0 1 2
C 0.718688 2.999502 -1.273285 4 5 6 7
C -2.999502 1.934409 2.999502 5 4 6 7
C -0.136932 2.999502 1.278003 6 4 5 7
C -2.282862 2.999502 -1.030504 7 4 5 6
C 2.996783 1.719769 2.999502 8 9 10 11
C 2.994143 2.999502 0.793134 9 8 10 11
C 2.999502 2.999502 2.996160 10 8 9 11
C 2.869433 -2.817868 2.979561 11 8 9 10
C -2.967189 -0.846649 2.654139 12 13 14 15
C -2.999502 -2.239247 -2.640944 13 12 14 15
C -2.364058 -2.998200 -0.111412 14 12 13 15
C -2.999502 -2.999502 2.999502 15 12 13 14
C -2.999502 2.998605 2.997777 16 17 18 19
C 2.999502 -2.083049 -2.234549 17 16 18 19
C 2.999502 -2.999502 -2.943599 18 16 17 19
C -2.396902 -2.854769 2.809585 19 16 17 18
C -2.315681 2.999502 2.653804 20 21 22 23
C 2.971354 2.661800 2.999502 21 20 22 23
C 1.071955 -2.898244 -2.798712 22 20 21 23
C 2.969506 -2.644270 2.999502 23 20 21 22
C -2.976312 -2.999502 2.950285 24 25 26 27
C -1.302012 2.999502 2.984821 25 24 26 27
C 2.985259 2.907277 2.999502 26 24 25 27
C 2.999502 2.581905 -0.121569 27 24 25 26
C 2.999502 -2.672689 2.659086 28 29 30 31
C -2.992277 -0.771563 -2.999502 29 28 30 31
C 2.948413 -2.999502 -0.929382 30 28 29 31
C -2.993969 -2.999502 -1.041164 31 28 29 30
C -2.975777 0.293779 -2.988299 32 33 34 35
C -2.999502 2.999502 2.992457 33 32 34 35
C -2.999502 -2.269292 2.999502 34 32 33 35
C 2.999502 2.978083 2.999502 35 32 33 34
C 2.999502 -2.999502 -2.999502 36 37 38 39
C -2.999502 2.999502 2.999502 37 36 38 39
C 1.138211 2.991469 -2.982774 38 36 37 39
C -2.980203 -2.902803 -2.999502 39 36 37 38
C 2.928854 2.954883 -0.254476 40 41 42 43
C -2.999502 2.487184 2.999502 41 40 42 43
C 2.999502 2.999502 -0.533122 42 40 41 43
C -2.968382 2.996463 -2.555397 43 40 41 42
C 2.999502 -2.988434 2.999502 44 45 46 47
C 0.546138 2.999502 2.728209 45 44 46 47
C 2.922237 -2.999502 -0.448917 46 44 45 47
C 0.841676 -2.999502 0.800527 47 44 45 46
C -2.999502 -2.999502 2.967237 48 49 50 51
C 1.979252 -0.206087 2.999502 49 48 50 51
C -2.999502 2.290936 -2.999502 50 48 49 51
C -2.999502 -2.999502 -1.790131 51 48 49 50
C -2.906499 -2.999502 2.999502 52 53 54 55
C -2.999502 2.999502 2.687419 53 52 54 55
C -2.999502 -1.171316 -2.999502 54 52 53 55
C -2.999502 -2.999502 0.106537 55 52 53 54
C -1.550436 2.999502 2.999502 56 57 58 59
C 2.999502 2.999502 -2.999502 57 56 58 59
C -2.999502 -2.999502 -2.999502 58 56 57 59
C 0.897267 2.995630 2.999502 59 56 57 58
