60
Generated fullerene structure
C -2.693103 -2.999502 -2.999502 0 1 2 3
C -2.479225 2.999502 2.241405 1 0 2 3
C 0.853153 -2.643555 -2.999502 2 0 1 3
C 2.999502 -2.999502 -2.992250 3 0 1 2
C -2.999502 -2.650096 -0.299047 4 5 6 7
C 2.999502 -2.999502 2.999502 5 4 6 7
C -2.872019 2.787663 2.999502 6 4 5 7
C -2.987358 2.999502 -2.730451 7 4 5 6
C 2.999502 2.984086 -2.999502 8 9 10 11
C 2.732175 -2.982485 -1.700580 9 8 10 11
C 1.432057 1.731392 2.999502 10 8 9 11
C 2.999502 2.999502 2.999502 11 8 9 10
C 0.684558 -2.958318 -2.601881 12 13 14 15
C 2.999502 -2.997278 2.526417 13 12 14 15
C 2.992869 2.999502 2.589713 14 12 13 15
C 0.985300 2.999338 -2.952322 15 12 13 14
C 2.999502 2.300809 1.147170 16 17 18 19
C -2.999502 2.999502 2.999502 17 16 18 19
C -2.995619 -1.239671 -0.744680 18 16 17 19
C -0.779429 -2.999502 2.997277 19 16 17 18
C 1.522432 0.870018 -2.999502 20 21 22 23
C -2.999502 -2.993052 0.320472 21 20 22 23
C -2.999502 2.011674 2.999502 22 20 21 23
C 2.999502 -2.999502 -1.232160 23 20 21 22
C -2.999502 -2.600058 1.701197 24 25 26 27
C -2.994502 2.938233 -0.397879 25 24 26 27
C -2.999502 1.042588 -2.259138 26 24 25 27
C 1.838081 -0.966504 2.999502 27 24 25 26
C -2.999502 2.999502 -2.997783 28 29 30 31
C -2.999502 2.970828 -1.735672 29 28 30 31
C -2.944532 2.268600 -2.999502 30 28 29 31
C -2.999502 -2.644655 -2.971768 31 28 29 30
C -2.985246 -2.999502 -2.566674 32 33 34 35
C 0.574841 -2.999502 -2.972477 33 32 34 35
C 1.649604 2.999502 2.823397 34 32 33 35
C -2.273568 -2.999502 -1.139846 35 32 33 34
C -2.896291 2.967965 -2.999502 36 37 38 39
C -2.024793 1.874264 -2.984257 37 36 38 39
C -2.999502 2.999502 1.796528 38 36 37 39
C -1.296106 2.996750 -2.870766 39 36 37 38
C -2.999502 2.606628 2.999502 40 41 42 43
C -1.844302 -2.999502 -2.994875 41 40 42 43
C -2.600321 2.602187 2.999502 42 40 41 43
C -2.999502 0.784626 2.556253 43 40 41 42
C 2.996204 -0.388514 2.999502 44 45 46 47
C 2.999502 0.593926 -2.999502 45 44 46 47
C -2.999502 2.670841 2.991754 46 44 45 47
C -2.999502 1.970083 2.993360 47 44 45 46
C -2.999502 -0.594371 -2.999502 48 49 50 51
C -2.999502 -2.999502 1.473580 49 48 50 51
C -2.999502 1.146933 -2.796257 50 48 49 51
C -2.999502 2.999502 1.495001 51 48 49 50
C -0.361412 2.999502 2.999502 52 53 54 55
C -2.999502 2.962054 1.506570 53 52 54 55
C -2.999502 2.999502 2.996191 54 52 53 55
C -2.991158 1.673354 2.414086 55 52 53 54
C -1.636015 2.999502 -2.999502 56 57 58 59
C 2.999502 -2.089022 2.999502 57 56 58 59
C 2.999502 -2.999502 2.999502 58 56 57 59
C -2.999502 -2.236436 -0.677580 59 56 57 58
