60
Generated fullerene structure
C -2.999502 -2.999502 -2.999502 0 1 2 3
C -0.927078 -2.999502 -2.999502 1 0 2 3
C 2.739068 2.999502 -2.996984 2 0 1 3
C -2.944531 2.984352 2.239742 3 0 1 2
C 2.999502 2.999502 -1.578685 4 5 6 7
C -2.995818 2.999502 -2.999502 5 4 6 7
C -2.999502 -2.999502 -2.049427 6 4 5 7
C 2.999502 2.994816 2.999502 7 4 5 6
C -2.172401 -2.991420 -2.999502 8 9 10 11
C 2.999502 2.999502 -2.995119 9 8 10 11
C 0.698486 -2.877142 1.579477 10 8 9 11
C -2.989381 2.998695 -1.497262 11 8 9 10
C -1.351930 -2.999502 2.991521 12 13 14 15
C -2.999502 2.999502 -2.999502 13 12 14 15
C 1.715236 -2.999502 2.999502 14 12 13 15
C -2.999502 -2.999502 -2.999502 15 12 13 14
C -2.989439 2.955309 2.999502 16 17 18 19
C -1.303828 2.996130 -0.628353 17 16 18 19
C -2.999502 2.999502 0.063892 18 16 17 19
C -2.995060 -2.999502 2.999502 19 16 17 18
C -2.999502 2.217450 2.999502 20 21 22 23
C -2.999502 0.973991 1.760702 21 20 22 23
C 2.999502 1.226436 -2.999502 22 20 21 23
C -2.999502 2.999502 1.003114 23 20 21 22
C 2.999502 -2.999502 2.999502 24 25 26 27
C 2.047216 -2.981552 -2.999502 25 24 26 27
C 2.999502 2.999502 1.311852 26 24 25 27
C -1.052044 -2.808869 2.999502 27 24 25 26
C -0.560797 2.999502 -2.843141 28 29 30 31
C 2.999502 0.263709 2.999502 29 28 30 31
C 2.999502 -2.999502 -2.999502 30 28 29 31
C -2.155804 -2.999502 -2.987434 31 28 29 30
C 2.929825 -2.340361 -0.431155 32 33 34 35
C 2.401141 2.999502 2.999494 33 32 34 35
C -0.611219 2.982061 2.999502 34 32 33 35
C 2.861853 2.995560 -2.086734 35 32 33 34
C 2.999502 -2.990954 -2.256405 36 37 38 39
C 2.999502 2.895783 -2.999502 37 36 38 39
C -2.999502 -2.935780 -2.761590 38 36 37 39
C -2.999502 -2.999502 1.411672 39 36 37 38
C -2.999502 -2.999502 -2.999502 40 41 42 43
C -2.999502 -2.993655 2.999502 41 40 42 43
C -0.909677 2.999502 -1.549488 42 40 41 43
C 2.931617 -2.999502 2.963918 43 40 41 42
C -2.999502 2.998217 -2.997069 44 45 46 47
C 2.291944 -2.994611 -2.999502 45 44 46 47
C 1.205746 2.391083 2.999502 46 44 45 47
C 2.997142 2.999502 -0.758653 47 44 45 46
C -2.999502 2.999502 -2.999502 48 49 50 51
C 2.999502 -2.975978 2.988532 49 48 50 51
C 0.058817 2.968838 2.999502 50 48 49 51
C -2.999502 0.418066 -0.386149 51 48 49 50
C -2.999502 -2.826936 2.999502 52 53 54 55
C -2.999502 -2.999502 -2.999502 53 52 54 55
C -2.993501 2.999502 -0.324157 54 52 53 55
C 2.991236 -2.976238 2.999502 55 52 53 54
C 2.999502 2.945596 2.999502 56 57 58 59
C 2.999502 -2.999502 2.903695 57 56 58 59
C 2.991678 -2.997651 2.349318 58 56 57 59
C 0.082011 2.941960 0.803853 59 56 57 58
