60
Generated fullerene structure
C 2.999502 -2.999502 2.993602 0 1 2 3
C 2.791053 -2.999502 2.999502 1 0 2 3
C -2.173787 2.997859 1.832905 2 0 1 3
C -2.999502 -1.014642 -2.982497 3 0 1 2
C 0.110892 2.999502 0.044614 4 5 6 7
C 2.999502 2.999502 0.080280 5 4 6 7
C -2.999502 -2.999502 2.994266 6 4 5 7
C -1.645558 -2.994851 2.999502 7 4 5 6
C -2.997524 -2.999502 2.999502 8 9 10 11
C -2.999302 -2.924148 2.996471 9 8 10 11
C 2.966403 2.999502 -2.874339 10 8 9 11
C -2.696942 2.999502 2.371468 11 8 9 10
C -2.999502 1.673039 1.459725 12 13 14 15
C 2.950959 0.556385 -2.977191 13 12 14 15
C -2.999028 -2.902999 2.999502 14 12 13 15
C 2.961157 -2.459496 -2.456963 15 12 13 14
C -2.399184 2.959515 -2.998124 16 17 18 19
C -2.999502 2.997917 2.999502 17 16 18 19
C 2.989361 2.999502 -2.999502 18 16 17 19
C -0.426223 -0.844645 -2.999502 19 16 17 18
C 0.703214 -1.726518 -0.569991 20 21 22 23
C 2.981641 -2.970447 2.999502 21 20 22 23
C 2.996805 2.790915 0.000369 22 20 21 23
C -2.746924 2.996465 2.999502 23 20 21 22
C 2.999502 2.974117 -2.998552 24 25 26 27
C -1.318116 1.822500 2.999502 25 24 26 27
C -2.984463 -2.998981 -0.580154 26 24 25 27
C 2.999502 2.999502 2.997061 27 24 25 26
C 2.970574 2.996097 -2.171973 28 29 30 31
C -2.999502 -2.999502 2.301206 29 28 30 31
C 0.351982 -2.999502 2.999502 30 28 29 31
C -2.999502 2.999502 -1.286734 31 28 29 30
C -2.999502 -0.305092 2.999502 32 33 34 35
C -2.999502 2.999502 -2.999502 33 32 34 35
C 1.686400 -2.381011 2.999502 34 32 33 35
C 2.999502 -2.999502 2.999502 35 32 33 34
C -2.640727 -2.561097 2.999502 36 37 38 39
C -2.833242 2.992249 -2.222376 37 36 38 39
C -2.999502 -2.997105 2.999502 38 36 37 39
C 2.707006 -1.190182 2.999502 39 36 37 38
C -2.999502 1.821391 2.999502 40 41 42 43
C 0.886360 -2.999502 -2.999502 41 40 42 43
C -2.359811 -0.110318 2.999502 42 40 41 43
C -1.007146 2.999502 2.775611 43 40 41 42
C 2.997738 -2.999502 2.995923 44 45 46 47
C 2.999502 1.212563 -2.999502 45 44 46 47
C 2.961788 2.999502 2.917923 46 44 45 47
C 2.999502 -2.999502 0.707099 47 44 45 46
C 2.999502 2.781840 -2.999502 48 49 50 51
C -2.999502 2.582942 0.353706 49 48 50 51
C 2.999502 2.999502 2.990789 50 48 49 51
C -2.999502 2.999502 2.999502 51 48 49 50
C 2.999502 2.999502 2.999502 52 53 54 55
C 0.486898 -1.466014 1.037503 53 52 54 55
C -2.976262 2.835708 -2.991640 54 52 53 55
C -2.999502 2.999502 2.999502 55 52 53 54
C 2.973512 2.999502 2.937449 56 57 58 59
C -1.495809 -2.999502 -0.053739 57 56 58 59
C -2.999502 -2.999502 2.999502 58 56 57 59
C -1.115177 2.999502 2.657536 59 56 57 58
