60
Generated fullerene structure
C 2.999502 2.997568 -2.850303 0 1 2 3
C -2.999502 -2.968069 -2.582450 1 0 2 3
C -2.852325 -2.999502 -2.999502 2 0 1 3
C -2.998307 -2.627240 2.999502 3 0 1 2
C 2.308529 2.633197 -2.999502 4 5 6 7
C -0.705365 -2.989303 2.999502 5 4 6 7
C -2.999082 -2.999502 -2.027693 6 4 5 7
C -2.999502 -1.427832 -2.999502 7 4 5 6
C 2.999502 2.999502 -1.616107 8 9 10 11
C 2.287744 0.122616 2.393150 9 8 10 11
C -2.999502 -0.487979 -2.514186 10 8 9 11
C 2.686674 2.999502 -2.999502 11 8 9 10
C -2.999502 -2.362657 0.918843 12 13 14 15
C 2.999502 2.998753 -2.972440 13 12 14 15
C -2.999502 1.403489 -2.999502 14 12 13 15
C 0.402383 -2.999502 -2.999502 15 12 13 14
C -2.999502 -2.541204 2.973706 16 17 18 19
C -2.999502 -2.999502 -2.999502 17 16 18 19
C 2.999502 -1.089969 -0.839212 18 16 17 19
C 2.931771 2.993727 -2.992450 19 16 17 18
C 2.447374 2.999502 2.999502 20 21 22 23
C 2.983861 -2.999502 1.238955 21 20 22 23
C -2.601660 2.154257 2.999502 22 20 21 23
C 2.995909 2.989554 -1.385546 23 20 21 22
C -2.890162 -2.999502 -2.938973 24 25 26 27
C -2.999502 2.992955 2.999502 25 24 26 27
C -2.999502 2.999502 2.971776 26 24 25 27
C 2.040879 2.967195 -2.999502 27 24 25 26
C -2.999502 -2.982119 2.999502 28 29 30 31
C 2.999502 2.999502 -1.029642 29 28 30 31
C 2.972302 2.999502 2.999502 30 28 29 31
C -2.999502 -2.997123 2.586049 31 28 29 30
C -2.999502 -0.888373 2.999502 32 33 34 35
C -2.916706 0.293854 -2.999502 33 32 34 35
C 1.850433 -2.999502 -0.709386 34 32 33 35
C -0.386964 -2.999502 -2.865113 35 32 33 34
C 1.144271 -2.128718 -2.670894 36 37 38 39
C -2.999502 2.114786 -2.999502 37 36 38 39
C -2.654013 2.999502 -2.998622 38 36 37 39
C 2.992517 2.999502 2.999502 39 36 37 38
C -2.681337 2.999502 -0.572110 40 41 42 43
C -2.999502 0.896769 0.181812 41 40 42 43
C 2.998509 -2.999502 2.999502 42 40 41 43
C 1.224792 2.979474 2.725605 43 40 41 42
C -2.299545 -2.999502 -2.993460 44 45 46 47
C 2.999502 -2.990173 -2.999502 45 44 46 47
C 2.847700 2.999502 2.999502 46 44 45 47
C 0.260439 2.999502 2.999502 47 44 45 46
C 2.991607 -2.999502 2.976602 48 49 50 51
C -0.326019 2.997729 2.996304 49 48 50 51
C 2.999502 2.332277 -2.973290 50 48 49 51
C -1.873785 -1.466118 -2.721343 51 48 49 50
C -1.301966 -2.315726 2.997943 52 53 54 55
C 0.133510 2.999502 -2.999502 53 52 54 55
C 2.999502 1.757771 2.999502 54 52 53 55
C 1.167451 -2.506885 2.999502 55 52 53 54
C -2.999502 2.988664 2.602507 56 57 58 59
C 2.999502 -2.770445 2.989836 57 56 58 59
C -2.999502 2.999502 2.999502 58 56 57 59
C -2.999502 2.999502 2.999502 59 56 57 58
