60
Generated fullerene structure
C -0.858507 -2.999502 2.999502 0 1 2 3
C 2.999502 -2.999502 2.999502 1 0 2 3
C -1.901610 -2.999502 -2.999502 2 0 1 3
C -2.901740 -2.999502 -2.999502 3 0 1 2
C -2.990076 -2.999502 -2.999502 4 5 6 7
C -2.999502 -2.323737 -2.999502 5 4 6 7
C 2.954788 2.845381 2.999502 6 4 5 7
C -2.999502 2.999502 2.614955 7 4 5 6
C 2.999502 -2.999502 -2.941696 8 9 10 11
C 2.714891 -2.999502 -2.955058 9 8 10 11
C -2.956450 -2.999502 2.999502 10 8 9 11
C -2.999502 -2.721556 0.962318 11 8 9 10
C -2.999502 2.999502 -2.999502 12 13 14 15
C 2.999502 1.291325 2.999189 13 12 14 15
C -2.999502 -0.530279 2.999502 14 12 13 15
C -2.999502 2.989059 2.999502 15 12 13 14
C -2.999502 2.864174 2.999502 16 17 18 19
C -0.946088 2.550279 2.999502 17 16 18 19
C -2.997625 2.999502 2.999502 18 16 17 19
C -2.984631 -2.999502 2.999502 19 16 17 18
C 2.999502 2.460584 -2.999502 20 21 22 23
C 2.575371 2.999502 2.999502 21 20 22 23
C -2.986877 2.999502 -1.469386 22 20 21 23
C -2.999502 2.999502 0.918420 23 20 21 22
C 2.999502 -2.999361 -2.999502 24 25 26 27
C 2.971205 -2.999502 -1.889874 25 24 26 27
C -0.346734 2.978620 -0.521583 26 24 25 27
C -2.999502 2.778301 2.999502 27 24 25 26
C -2.432000 -2.999502 -2.999502 28 29 30 31
C -2.991887 -0.907452 -2.999502 29 28 30 31
C -2.999502 2.998751 2.999502 30 28 29 31
C -2.999502 -0.733531 1.818121 31 28 29 30
C -2.961985 -2.992391 2.999502 32 33 34 35
C -2.999502 -2.999502 -2.999502 33 32 34 35
C 2.986363 2.999502 2.964277 34 32 33 35
C 2.999502 0.846123 -2.999502 35 32 33 34
C 2.999502 -2.993027 -2.976015 36 37 38 39
C -0.677676 1.552872 0.749555 37 36 38 39
C 2.999502 2.920049 2.490971 38 36 37 39
C 2.996260 -2.999502 2.964886 39 36 37 38
C -2.999502 -0.092669 2.581385 40 41 42 43
C 2.982589 2.900242 2.999502 41 40 42 43
C 2.999502 2.996925 0.144967 42 40 41 43
C -2.984377 -2.999502 2.999502 43 40 41 42
C 2.669532 -0.658931 -2.999502 44 45 46 47
C 0.441491 -2.995606 0.763598 45 44 46 47
C 2.823861 2.999502 -2.993780 46 44 45 47
C -1.636305 1.465147 -2.308566 47 44 45 46
C -2.999502 -0.052653 2.999502 48 49 50 51
C 2.290109 -2.999502 2.999502 49 48 50 51
C -2.999502 2.599386 -0.924188 50 48 49 51
C -2.983189 2.997434 1.326722 51 48 49 50
C 1.418116 -0.449217 -2.999502 52 53 54 55
C 2.848039 -2.928594 -2.960442 53 52 54 55
C 2.996133 2.999502 2.999502 54 52 53 55
C -2.999502 2.986378 -0.987845 55 52 53 54
C 1.542776 -2.999502 2.190707 56 57 58 59
C 0.319500 -2.098204 2.999502 57 56 58 59
C -2.998938 -1.544713 2.992208 58 56 57 59
C -2.138198 0.936964 2.182331 59 56 57 58
