60
Generated fullerene structure
C 2.999502 -2.089426 -2.999502 0 1 2 3
C -2.999502 2.999215 -2.999502 1 0 2 3
C -1.863136 0.441473 2.353558 2 0 1 3
C 0.590957 0.264888 2.794107 3 0 1 2
C -2.183551 -2.643476 -0.250399 4 5 6 7
C -2.999502 -0.086033 2.987322 5 4 6 7
C 2.994015 0.618423 -1.040794 6 4 5 7
C -2.313726 -2.999502 2.976886 7 4 5 6
C -2.999502 -2.953232 -2.999502 8 9 10 11
C 2.124243 2.950258 2.999502 9 8 10 11
C 2.022407 2.999502 2.974800 10 8 9 11
C -2.999502 2.999502 2.999502 11 8 9 10
C -2.999502 -2.999502 2.999502 12 13 14 15
C 2.912051 -0.129425 2.999502 13 12 14 15
C -2.999502 2.999502 2.999502 14 12 13 15
C 2.997273 2.999502 2.999502 15 12 13 14
C 1.619345 2.999502 2.999218 16 17 18 19
C -2.999502 -1.091896 2.622291 17 16 18 19
C -1.406834 2.999502 -1.822639 18 16 17 19
C 1.149199 2.359842 2.999502 19 16 17 18
C -2.999502 -2.999502 -0.891736 20 21 22 23
C 2.432199 2.579706 -2.999070 21 20 22 23
C -2.819186 0.226715 2.999502 22 20 21 23
C 2.997251 0.227728 2.999502 23 20 21 22
C -2.941226 1.288222 -1.555443 24 25 26 27
C 2.807782 -2.999502 -2.999502 25 24 26 27
C -2.999502 2.999502 -2.999502 26 24 25 27
C 2.999502 2.999502 2.944131 27 24 25 26
C -2.999502 -2.999502 2.999502 28 29 30 31
C -2.996777 2.995766 -2.999502 29 28 30 31
C 2.649511 -2.901842 2.429467 30 28 29 31
C -2.999502 2.850850 2.999502 31 28 29 30
C -2.999502 -2.999502 -0.301185 32 33 34 35
C 2.205829 -2.977570 0.122180 33 32 34 35
C -1.092292 2.984540 -2.668797 34 32 33 35
C 2.999502 -2.999502 -2.923459 35 32 33 34
C -2.999502 2.971210 2.999502 36 37 38 39
C -0.549022 -1.682679 -2.999502 37 36 38 39
C 2.999502 -0.206012 -2.730742 38 36 37 39
C -2.999502 2.999502 2.999502 39 36 37 38
C -2.995964 -2.963943 -1.568217 40 41 42 43
C -2.903893 -2.999502 0.778714 41 40 42 43
C -2.970997 2.526958 2.976952 42 40 41 43
C 0.764189 -2.996631 -2.944108 43 40 41 42
C 2.999502 2.306159 -2.973864 44 45 46 47
C -2.999502 0.300892 -2.999502 45 44 46 47
C -2.999502 2.995343 2.991801 46 44 45 47
C -2.911674 2.940436 2.999502 47 44 45 46
C -1.286222 2.999502 2.999502 48 49 50 51
C -2.333649 2.999502 2.985502 49 48 50 51
C -2.999502 -2.562254 2.677494 50 48 49 51
C 2.811685 2.999502 -2.497227 51 48 49 50
C -2.326038 0.111476 2.999502 52 53 54 55
C -1.980489 -2.908038 2.923411 53 52 54 55
C 1.791305 -2.903289 -2.999502 54 52 53 55
C -0.615684 -2.991942 2.988337 55 52 53 54
C 1.894696 2.999502 1.331720 56 57 58 59
C -2.999502 -2.999502 1.300103 57 56 58 59
C -2.999502 -0.440242 -2.995016 58 56 57 59
C 2.796536 2.999502 2.999502 59 56 57 58
