60
Generated fullerene structure
C -2.820601 2.708049 2.999502 0 1 2 3
C -2.317698 -2.999502 2.867349 1 0 2 3
C -2.986937 -0.029894 2.999502 2 0 1 3
C -2.999502 -0.922622 2.999502 3 0 1 2
C -1.484255 2.999502 -2.372192 4 5 6 7
C -2.999502 -2.989074 0.978637 5 4 6 7
C -2.999502 0.901576 2.999502 6 4 5 7
C 0.913120 2.121799 -2.139564 7 4 5 6
C -2.994966 2.959471 2.979053 8 9 10 11
C -2.999502 2.999502 -0.024167 9 8 10 11
C 1.972775 2.999502 2.999502 10 8 9 11
C -2.994187 0.223673 -2.463664 11 8 9 10
C 2.975826 -2.995546 -2.999502 12 13 14 15
C -2.996033 -2.999502 -2.983177 13 12 14 15
C -2.998459 -0.812019 1.638180 14 12 13 15
C -2.999502 2.999502 2.193512 15 12 13 14
C 1.417405 1.365890 -2.999502 16 17 18 19
C -2.999502 2.999502 2.999502 17 16 18 19
C 2.999502 -2.999502 -2.386218 18 16 17 19
C -2.901961 2.999502 2.545759 19 16 17 18
C 2.999502 -2.999502 -1.835599 20 21 22 23
C -0.813149 2.862478 -0.369987 21 20 22 23
C 2.794481 -2.999502 2.999502 22 20 21 23
C -2.907917 2.999502 0.960882 23 20 21 22
C 2.999502 -1.902120 0.913428 24 25 26 27
C -2.653890 2.999502 2.816882 25 24 26 27
C 2.999502 1.831179 -2.999502 26 24 25 27
C 2.731530 2.999502 -2.999502 27 24 25 26
C 0.964447 2.004776 1.131953 28 29 30 31
C -2.999502 0.123826 -2.999502 29 28 30 31
C 2.982077 2.454783 -2.993546 30 28 29 31
C 2.999502 -2.162602 0.836857 31 28 29 30
C 1.115756 -2.482083 2.401569 32 33 34 35
C -2.999502 -1.621730 -2.999502 33 32 34 35
C -2.999502 0.816176 2.994013 34 32 33 35
C 2.999502 2.999502 -2.212454 35 32 33 34
C 2.999502 1.847641 -0.613191 36 37 38 39
C 2.652271 -2.999502 2.999502 37 36 38 39
C 2.999502 -2.961091 -2.999502 38 36 37 39
C -2.999502 2.967767 -2.999502 39 36 37 38
C -2.285493 2.999502 2.761696 40 41 42 43
C 2.999502 2.999502 2.838023 41 40 42 43
C 2.993551 -2.999502 -2.999502 42 40 41 43
C 2.137647 -2.999502 2.969726 43 40 41 42
C 0.156440 -2.949647 -2.999502 44 45 46 47
C 2.999502 2.448581 2.999502 45 44 46 47
C 2.995954 -0.248360 -2.974849 46 44 45 47
C -2.999502 -2.794221 2.999502 47 44 45 46
C -2.929871 -2.999502 2.985462 48 49 50 51
C -2.999502 0.324322 2.421743 49 48 50 51
C 2.696500 1.633814 2.999502 50 48 49 51
C -1.464280 2.999502 2.999502 51 48 49 50
C 2.999502 -2.985636 -2.953122 52 53 54 55
C 2.999502 2.723042 2.999502 53 52 54 55
C -2.999502 -2.768212 -2.999502 54 52 53 55
C -2.659920 -2.999502 2.999502 55 52 53 54
C -2.938353 2.849484 2.999502 56 57 58 59
C -2.063878 -2.999502 -2.451659 57 56 58 59
C -1.265402 2.999502 1.329319 58 56 57 59
C -0.096704 2.996655 2.999502 59 56 57 58
