60
Generated fullerene structure
C -2.999502 -2.936144 0.862862 0 1 2 3
C -2.978588 -2.999502 -2.999502 1 0 2 3
C -2.621804 -2.990981 2.999502 2 0 1 3
C -2.999502 -2.728938 -2.968254 3 0 1 2
C -2.999502 2.998878 2.990803 4 5 6 7
C -2.999502 2.999502 -2.999502 5 4 6 7
C 2.178461 2.999502 2.999502 6 4 5 7
C 2.999502 2.707998 2.999502 7 4 5 6
C -2.511044 2.976148 -1.118538 8 9 10 11
C 2.999502 -2.999502 0.986445 9 8 10 11
C 2.999502 -2.999502 2.742827 10 8 9 11
C 2.999502 2.994624 2.849779 11 8 9 10
C -1.818207 2.999502 -2.943332 12 13 14 15
C -0.963308 -0.506550 -2.177165 13 12 14 15
C 2.123374 -1.114170 -2.209652 14 12 13 15
C -2.999126 2.999502 -2.950716 15 12 13 14
C 2.957123 -2.705755 2.954520 16 17 18 19
C 2.656157 2.995691 -2.999502 17 16 18 19
C -2.999502 -0.599914 -1.522641 18 16 17 19
C 2.507114 1.485825 -1.281103 19 16 17 18
C 2.999502 2.901144 -1.238326 20 21 22 23
C 0.168284 2.967995 -0.093237 21 20 22 23
C -2.999502 -2.999502 2.999502 22 20 21 23
C -2.999502 -2.999502 -2.945278 23 20 21 22
C -2.839730 -2.991127 2.999502 24 25 26 27
C -2.999502 -1.466028 -2.305330 25 24 26 27
C 2.999502 -0.889333 -1.447584 26 24 25 27
C 0.723158 2.999502 -2.999502 27 24 25 26
C -1.950254 -2.985391 2.999502 28 29 30 31
C 2.988785 -0.862223 -2.995532 29 28 30 31
C 2.999502 -2.948061 2.997086 30 28 29 31
C 2.999502 -0.843746 -1.058973 31 28 29 30
C -2.999502 2.753898 -2.999502 32 33 34 35
C 2.953139 2.999502 -2.999502 33 32 34 35
C 0.712462 -2.989524 2.228680 34 32 33 35
C -2.956844 -2.999502 2.999502 35 32 33 34
C -2.999502 -2.999502 2.999502 36 37 38 39
C -2.979042 -2.991887 -1.081293 37 36 38 39
C -1.810986 1.942854 -2.655230 38 36 37 39
C 2.967796 2.773730 -2.960361 39 36 37 38
C -1.785103 1.221514 2.999502 40 41 42 43
C -2.999502 -2.999502 2.999502 41 40 42 43
C 2.999502 -2.981213 -2.960896 42 40 41 43
C 2.999502 2.999502 -2.999502 43 40 41 42
C -0.310909 2.999502 2.999502 44 45 46 47
C 2.999502 -2.992600 2.999502 45 44 46 47
C 2.999502 -2.830701 2.990091 46 44 45 47
C 1.569837 -2.999502 -2.202861 47 44 45 46
C -1.132241 2.998047 0.450806 48 49 50 51
C 1.418609 -2.982505 -2.992972 49 48 50 51
C -2.999502 -1.395531 -2.999502 50 48 49 51
C 2.999502 -2.999502 -2.565368 51 48 49 50
C -0.945650 2.999502 -2.994520 52 53 54 55
C -2.999502 -2.999502 -2.089075 53 52 54 55
C -2.991538 -2.995603 2.999502 54 52 53 55
C -2.350080 -1.050096 2.999502 55 52 53 54
C 2.999027 -0.091424 -2.078614 56 57 58 59
C -2.999502 2.998337 -2.992767 57 56 58 59
C -2.999502 -1.638845 2.999502 58 56 57 59
C 2.705484 2.996644 2.173013 59 56 57 58
