60
Generated fullerene structure
C 2.941566 2.999502 2.616476 0 1 2 3
C -0.875273 2.999502 2.710570 1 0 2 3
C -2.999502 0.566605 1.863926 2 0 1 3
C -2.999502 0.571044 -2.990478 3 0 1 2
C 2.636922 -2.145509 -0.449049 4 5 6 7
C -0.007759 -2.940004 -0.954178 5 4 6 7
C -2.999502 2.972582 2.741610 6 4 5 7
C -2.999502 -0.066296 -2.999502 7 4 5 6
C 2.952104 -1.612463 0.710295 8 9 10 11
C 2.880091 -0.552106 -2.990787 9 8 10 11
C -2.988238 2.999502 -0.812900 10 8 9 11
C -2.973182 -2.999502 -2.497849 11 8 9 10
C -2.999502 -2.999502 0.084792 12 13 14 15
C -2.999502 -2.519946 2.999502 13 12 14 15
C -2.999502 -2.964033 -2.764126 14 12 13 15
C -2.997979 2.999502 2.828800 15 12 13 14
C 2.999502 -0.405700 2.417412 16 17 18 19
C -2.996813 -2.992289 2.523643 17 16 18 19
C 0.441154 -0.699941 -2.999502 18 16 17 19
C 2.873896 -2.974076 2.999502 19 16 17 18
C -1.997921 -0.507289 2.871671 20 21 22 23
C -1.553288 -2.999502 2.997495 21 20 22 23
C -2.999502 -1.047289 1.895723 22 20 21 23
C -2.999502 -2.978677 -2.999502 23 20 21 22
C 2.989980 -2.999502 -2.999502 24 25 26 27
C 2.999502 -2.999502 -0.902796 25 24 26 27
C 2.899948 -0.060369 2.764213 26 24 25 27
C -2.999502 -2.862389 -2.999502 27 24 25 26
C -2.889112 -1.682881 -2.995219 28 29 30 31
C 2.999079 -2.696797 -2.999502 29 28 30 31
C 2.999502 0.986655 2.999502 30 28 29 31
C 2.993964 -1.723636 0.321937 31 28 29 30
C -0.349437 2.995084 -2.999502 32 33 34 35
C 2.999502 2.999502 -2.999502 33 32 34 35
C -2.999502 -0.837231 2.999502 34 32 33 35
C 2.631926 -2.999502 -2.986594 35 32 33 34
C -2.281957 2.999502 -2.999502 36 37 38 39
C -2.998080 2.999502 -2.827517 37 36 38 39
C 2.999502 -2.376319 2.995996 38 36 37 39
C -2.999502 -2.999502 -2.999502 39 36 37 38
C 2.990394 -2.982791 2.999502 40 41 42 43
C 0.878871 2.648323 0.035238 41 40 42 43
C -2.892663 2.999502 2.329561 42 40 41 43
C 1.638125 -2.999502 -1.872736 43 40 41 42
C 2.999502 2.995797 2.999502 44 45 46 47
C -2.989187 -2.949002 -1.951599 45 44 46 47
C 2.999502 2.999502 0.156032 46 44 45 47
C 2.669643 -2.999502 -2.999502 47 44 45 46
C -0.749385 2.999502 0.879473 48 49 50 51
C -2.879215 2.999502 1.252230 49 48 50 51
C -2.887638 2.999502 2.269921 50 48 49 51
C 2.999502 -2.638139 -2.999352 51 48 49 50
C -2.999502 -2.932974 -2.031746 52 53 54 55
C -2.996292 -1.458503 -2.984889 53 52 54 55
C 2.999502 -2.999502 2.999502 54 52 53 55
C 2.535444 -1.469205 -2.999502 55 52 53 54
C 2.999079 -2.284614 -2.999502 56 57 58 59
C 2.878108 2.999502 2.999502 57 56 58 59
C -2.575423 2.999502 2.999502 58 56 57 59
C -2.993591 2.996087 2.999502 59 56 57 58
