60
Generated fullerene structure
C 2.981123 2.451365 2.999502 0 1 2 3
C 2.999502 2.889760 -2.923034 1 0 2 3
C 1.944440 -1.921355 0.001884 2 0 1 3
C -2.637284 -2.649870 2.987362 3 0 1 2
C -2.615007 -2.530309 2.999502 4 5 6 7
C 2.506013 -1.449770 -2.999502 5 4 6 7
C -2.999502 2.805295 2.999502 6 4 5 7
C -2.999502 -2.999502 -2.999502 7 4 5 6
C -2.900630 2.999502 2.999502 8 9 10 11
C -2.340740 2.778934 2.999502 9 8 10 11
C -2.999502 2.999502 2.936528 10 8 9 11
C 2.474734 2.843354 -2.999502 11 8 9 10
C -1.726286 -2.999502 -0.135366 12 13 14 15
C 2.999502 -2.995675 2.999502 13 12 14 15
C -2.645663 2.342250 -2.999169 14 12 13 15
C 1.451683 -2.994292 -0.373660 15 12 13 14
C -0.407628 1.119815 -2.969127 16 17 18 19
C -2.999502 -2.999502 -2.792520 17 16 18 19
C 2.996685 2.999502 2.999502 18 16 17 19
C -2.970829 -0.770538 -1.242199 19 16 17 18
C 2.995525 -0.067794 2.986326 20 21 22 23
C 2.999502 -2.424367 2.999502 21 20 22 23
C -1.240252 2.810883 -0.584482 22 20 21 23
C -2.036441 -2.999502 2.999502 23 20 21 22
C -2.999502 -2.765775 -2.999502 24 25 26 27
C 2.083343 1.574605 2.999502 25 24 26 27
C 2.334027 -2.999502 2.396550 26 24 25 27
C 2.316352 -2.956657 2.792557 27 24 25 26
C 2.999502 -1.060621 1.207332 28 29 30 31
C -2.999502 -0.821940 2.783273 29 28 30 31
C 1.531460 2.989987 -2.996890 30 28 29 31
C 1.771690 -2.999502 2.999502 31 28 29 30
C -2.364512 -2.999502 2.999502 32 33 34 35
C -2.999502 -2.075729 -1.729849 33 32 34 35
C -2.999502 -2.599154 0.665266 34 32 33 35
C -2.999502 2.998929 -2.987743 35 32 33 34
C 1.049896 0.589262 -2.999502 36 37 38 39
C 2.999502 -2.999502 -2.968432 37 36 38 39
C 1.861859 2.994441 -2.524284 38 36 37 39
C 2.999502 -2.901895 2.999502 39 36 37 38
C 0.640818 2.143710 2.999502 40 41 42 43
C -2.999502 2.996151 -2.721197 41 40 42 43
C -2.500662 -2.999502 2.936879 42 40 41 43
C -2.744762 2.999502 2.822522 43 40 41 42
C -1.535452 -2.979882 2.478142 44 45 46 47
C -2.685450 1.196159 2.999502 45 44 46 47
C -2.996530 -1.444671 2.841246 46 44 45 47
C -0.532878 -0.164894 -2.999502 47 44 45 46
C 2.999502 2.103451 -1.105094 48 49 50 51
C -2.990642 -0.430691 -2.999502 49 48 50 51
C -2.831160 -2.644332 -2.999502 50 48 49 51
C 2.999502 2.867325 2.995555 51 48 49 50
C 2.999502 2.999502 -2.726555 52 53 54 55
C 1.554989 -2.507523 -2.999502 53 52 54 55
C 2.841274 0.509128 -2.999502 54 52 53 55
C -2.999502 -2.999502 -1.460721 55 52 53 54
C 2.999502 -1.052820 -2.959583 56 57 58 59
C 2.999502 -1.106436 -0.222873 57 56 58 59
C -2.999502 2.999502 -2.881996 58 56 57 59
C -2.999502 -2.999502 2.931355 59 56 57 58
