60
Generated fullerene structure
C 2.488705 1.087508 -1.117941 0 1 2 3
C 2.971250 -2.999502 2.999502 1 0 2 3
C 2.933858 0.217477 -0.066462 2 0 1 3
C 2.999502 -2.999502 1.390997 3 0 1 2
C 2.999502 2.999502 2.999502 4 5 6 7
C 0.357178 -2.999502 0.752138 5 4 6 7
C -2.999502 2.994647 2.999502 6 4 5 7
C 1.242099 -2.999502 2.999502 7 4 5 6
C 2.999502 0.298454 2.999502 8 9 10 11
C 0.229338 -2.035872 -2.986138 9 8 10 11
C 0.280501 2.999502 2.999502 10 8 9 11
C -2.928290 2.999502 -2.573897 11 8 9 10
C -0.510357 -2.999502 -0.275048 12 13 14 15
C -2.999502 2.993072 2.999502 13 12 14 15
C -2.999502 2.999502 2.990318 14 12 13 15
C -2.999502 2.999502 -0.320551 15 12 13 14
C -2.775206 2.877079 2.897981 16 17 18 19
C 2.999502 0.289042 0.350968 17 16 18 19
C 2.999502 2.974036 1.157491 18 16 17 19
C -2.814718 -2.999502 -2.999502 19 16 17 18
C 2.971781 -2.998767 -2.589143 20 21 22 23
C 2.999502 -2.731663 -2.986774 21 20 22 23
C -2.999502 -2.999502 -2.999502 22 20 21 23
C -2.999502 -0.127304 2.999502 23 20 21 22
C -2.999502 2.999502 -1.554409 24 25 26 27
C -2.999502 -0.683401 2.999502 25 24 26 27
C -1.733868 1.129319 2.999502 26 24 25 27
C -1.154327 1.721495 -2.999502 27 24 25 26
C -1.044996 -2.999502 2.426490 28 29 30 31
C 2.999502 -2.999502 2.999502 29 28 30 31
C -2.999502 2.999502 2.999502 30 28 29 31
C -2.999502 -1.633030 1.730695 31 28 29 30
C 1.577329 -2.999502 2.999502 32 33 34 35
C -0.257562 -2.999502 -2.999502 33 32 34 35
C 2.999502 2.999502 -2.969012 34 32 33 35
C 0.868768 2.401439 2.826247 35 32 33 34
C 2.999502 -1.864078 2.999502 36 37 38 39
C 2.999502 -2.292625 2.098250 37 36 38 39
C 1.622959 2.267001 2.383170 38 36 37 39
C -2.999502 2.999502 2.999502 39 36 37 38
C 0.992606 2.943609 2.999502 40 41 42 43
C -1.616558 -1.527558 2.567288 41 40 42 43
C 2.999502 -0.108015 2.999502 42 40 41 43
C -2.999502 2.999502 1.073473 43 40 41 42
C -0.160864 2.999502 -2.999502 44 45 46 47
C -2.884267 2.999502 2.999502 45 44 46 47
C 2.369051 -2.988077 2.999502 46 44 45 47
C -2.976627 2.995447 2.999502 47 44 45 46
C 2.999502 2.999502 2.312096 48 49 50 51
C 2.987609 1.205024 2.999502 49 48 50 51
C 2.999502 0.818995 -2.709973 50 48 49 51
C -1.645617 1.084104 2.933882 51 48 49 50
C -2.999502 -1.619155 2.999502 52 53 54 55
C -2.998839 -2.999502 1.057094 53 52 54 55
C 2.252274 -2.999502 2.999502 54 52 53 55
C 2.912479 -2.991636 -2.999502 55 52 53 54
C -2.997358 2.517842 -1.536232 56 57 58 59
C -2.971759 -2.999502 2.999502 57 56 58 59
C 2.960158 -2.999502 2.999502 58 56 57 59
C 2.999502 -2.999502 2.987270 59 56 57 58
