60
Generated fullerene structure
C -1.958900 2.996016 -2.999502 0 1 2 3
C -2.999502 2.966763 0.695926 1 0 2 3
C 2.978927 -2.741586 -2.999502 2 0 1 3
C 2.022406 -2.999502 -2.789799 3 0 1 2
C 2.999502 -2.999502 -2.695142 4 5 6 7
C 2.999502 -2.992057 -2.618153 5 4 6 7
C 2.999502 2.976337 2.999502 6 4 5 7
C 2.810056 2.671086 -2.946720 7 4 5 6
C -2.999502 2.999502 -2.984009 8 9 10 11
C -2.917148 0.050177 -2.300739 9 8 10 11
C -0.217114 2.999502 0.855647 10 8 9 11
C -2.999502 2.180747 -2.999502 11 8 9 10
C -2.607571 -0.072635 2.999502 12 13 14 15
C -2.999502 2.929548 -2.983857 13 12 14 15
C -2.936087 -2.999502 -0.618806 14 12 13 15
C -2.999502 2.999502 -1.342575 15 12 13 14
C -1.387500 -2.999502 2.828165 16 17 18 19
C -0.110856 2.999502 -2.988860 17 16 18 19
C 2.999502 2.644527 2.994797 18 16 17 19
C -0.098857 2.974536 2.999502 19 16 17 18
C 2.999502 2.999502 2.999502 20 21 22 23
C -2.931571 0.772091 -1.926346 21 20 22 23
C 2.804606 2.919664 2.999502 22 20 21 23
C -2.999502 2.669772 -2.999502 23 20 21 22
C -2.999502 1.197005 2.999502 24 25 26 27
C 2.999502 -2.973300 2.995319 25 24 26 27
C -2.726795 -0.041055 2.999502 26 24 25 27
C -2.386951 2.999502 0.736926 27 24 25 26
C -2.999502 -2.804727 2.999502 28 29 30 31
C -2.422339 1.085787 -2.981595 29 28 30 31
C 2.999502 0.857286 -2.999502 30 28 29 31
C -2.999502 2.999502 -2.997707 31 28 29 30
C -2.999502 -0.397693 2.999502 32 33 34 35
C 2.999502 -2.562212 -2.999502 33 32 34 35
C -2.998817 -2.133662 2.999502 34 32 33 35
C -1.222080 -2.999502 0.161427 35 32 33 34
C 2.999502 -2.999502 2.704299 36 37 38 39
C -2.983263 -2.999502 -2.999502 37 36 38 39
C -2.999502 -2.999502 -1.750892 38 36 37 39
C -2.652225 -2.999502 -0.047564 39 36 37 38
C -1.049238 -2.999502 2.592034 40 41 42 43
C -2.999502 -2.999502 2.002478 41 40 42 43
C 2.999502 2.676308 2.534708 42 40 41 43
C 1.622897 -2.999502 2.999502 43 40 41 42
C -2.999502 -2.999502 2.999127 44 45 46 47
C -0.796700 2.994959 -2.634389 45 44 46 47
C 2.999502 -2.999502 -2.987525 46 44 45 47
C 2.999502 -2.999502 -2.991868 47 44 45 46
C 2.990074 -1.654431 -2.999502 48 49 50 51
C -0.416440 2.999502 -2.941923 49 48 50 51
C 2.999502 -2.999502 2.999502 50 48 49 51
C 1.457887 2.999502 -2.790771 51 48 49 50
C 2.900710 -2.999502 2.977862 52 53 54 55
C -2.999502 -0.864882 2.999502 53 52 54 55
C -1.136622 -2.605516 0.802825 54 52 53 55
C 2.999502 2.998649 -2.322227 55 52 53 54
C -2.999502 -1.832779 2.899951 56 57 58 59
C -1.071835 -0.344938 -2.999502 57 56 58 59
C -0.173166 -2.993744 -2.782592 58 56 57 59
C -2.907428 1.419642 2.999244 59 56 57 58
