60
Generated fullerene structure
C 1.056744 -2.999502 2.522551 0 1 2 3
C 2.999502 2.999502 2.999502 1 0 2 3
C 2.999502 -2.999502 -2.999502 2 0 1 3
C -1.122899 2.999502 -2.999502 3 0 1 2
C -1.943723 1.434666 -2.526886 4 5 6 7
C -2.999502 -2.974044 2.983268 5 4 6 7
C -2.982834 -2.999502 2.993410 6 4 5 7
C 2.807691 -2.999502 -2.980879 7 4 5 6
C -2.999502 2.535019 -2.750156 8 9 10 11
C -2.988991 2.282913 -0.779929 9 8 10 11
C -2.899418 2.999502 -2.999502 10 8 9 11
C 2.185579 2.474089 -2.933281 11 8 9 10
C 2.999502 -2.988964 0.404642 12 13 14 15
C -2.709840 -2.999502 -0.702389 13 12 14 15
C -2.998631 -2.999502 2.999502 14 12 13 15
C 2.992007 1.196131 -0.391817 15 12 13 14
C -2.999502 2.999502 -2.999502 16 17 18 19
C -2.999502 -2.999502 2.999502 17 16 18 19
C 2.940691 -2.939793 2.999502 18 16 17 19
C -2.636613 -2.420466 2.999502 19 16 17 18
C -2.999502 2.999502 2.995982 20 21 22 23
C -1.969463 2.999502 1.229896 21 20 22 23
C -2.999502 2.999502 -2.278553 22 20 21 23
C -2.999502 -2.982009 2.999502 23 20 21 22
C -2.110809 -1.682863 -1.557290 24 25 26 27
C -2.998545 -2.999502 0.019296 25 24 26 27
C -2.913611 -1.617552 2.999502 26 24 25 27
C 0.680074 2.999502 2.999502 27 24 25 26
C -2.999502 -2.999502 -2.999502 28 29 30 31
C -2.936673 2.999502 2.896622 29 28 30 31
C 2.999502 2.232213 2.999502 30 28 29 31
C -2.999502 0.226161 -2.999502 31 28 29 30
C -2.999502 -2.642368 -2.985925 32 33 34 35
C -2.985771 -2.858067 -2.996297 33 32 34 35
C 2.797733 2.848675 -2.982535 34 32 33 35
C 0.493608 -2.999502 0.348504 35 32 33 34
C 2.999502 0.037608 -2.999502 36 37 38 39
C -2.999502 -2.999502 2.621988 37 36 38 39
C -1.406145 -1.822693 -0.354493 38 36 37 39
C 2.934783 2.999502 -2.999502 39 36 37 38
C 2.999502 2.999502 -2.987270 40 41 42 43
C -2.999502 1.508781 2.999502 41 40 42 43
C 0.308250 0.710168 2.999502 42 40 41 43
C -2.999502 2.839357 -2.093719 43 40 41 42
C -1.451095 2.999502 2.272423 44 45 46 47
C 2.999502 2.999502 2.999502 45 44 46 47
C -2.999502 -2.899988 -2.999502 46 44 45 47
C -2.899100 -2.999502 -2.999502 47 44 45 46
C 2.925298 -2.999502 -2.990544 48 49 50 51
C 2.999502 -2.209962 -2.999502 49 48 50 51
C -2.206241 -2.951584 -2.999502 50 48 49 51
C 2.999502 -2.999502 2.999502 51 48 49 50
C 2.999502 2.558534 2.999502 52 53 54 55
C -2.999502 -2.999502 2.991755 53 52 54 55
C -2.999502 -2.999502 -2.999502 54 52 53 55
C -2.999502 0.304019 2.999502 55 52 53 54
C -2.999502 -2.999502 -1.391238 56 57 58 59
C 2.273360 -2.999502 -2.999502 57 56 58 59
C 2.999502 -0.097964 -0.640187 58 56 57 59
C 2.993647 -2.999502 -2.309123 59 56 57 58
