60
Generated fullerene structure
C -2.999502 -0.275775 -2.999502 0 1 2 3
C -1.146354 2.004724 -1.001842 1 0 2 3
C -2.999502 -2.999502 0.899760 2 0 1 3
C 2.999502 -2.999502 -2.999502 3 0 1 2
C -2.999502 2.999502 -2.991949 4 5 6 7
C -1.688850 -1.654792 -2.999502 5 4 6 7
C -2.999502 -0.654024 2.999502 6 4 5 7
C -2.993804 1.983532 -1.776666 7 4 5 6
C -2.999502 1.282276 2.583486 8 9 10 11
C -2.999502 -2.999502 -2.168769 9 8 10 11
C -2.238208 1.309398 -2.991745 10 8 9 11
C -2.999502 2.898740 -2.925467 11 8 9 10
C -2.999502 2.997333 -2.982045 12 13 14 15
C -2.999502 -2.999502 -2.980261 13 12 14 15
C 2.999502 -2.999502 -0.196484 14 12 13 15
C 2.999502 2.999502 0.484865 15 12 13 14
C -2.977406 -2.999502 -2.999502 16 17 18 19
C 2.991481 -2.999502 -1.291173 17 16 18 19
C -2.094826 2.997761 2.999502 18 16 17 19
C 2.999502 2.997705 2.990073 19 16 17 18
C -2.507644 -2.999502 -2.989878 20 21 22 23
C -2.999502 -2.999502 2.979223 21 20 22 23
C 2.036511 2.999502 2.541570 22 20 21 23
C -0.302486 1.638423 1.777261 23 20 21 22
C -2.999502 2.999502 2.999502 24 25 26 27
C -2.998694 2.971781 -2.999502 25 24 26 27
C -2.992790 2.999502 -0.952196 26 24 25 27
C 2.149526 -2.999502 -2.999502 27 24 25 26
C -1.382825 -2.998014 -2.123865 28 29 30 31
C 2.995735 2.999502 2.489608 29 28 30 31
C -2.996661 2.981131 2.999502 30 28 29 31
C -0.252639 -2.267199 0.101711 31 28 29 30
C -1.462038 -2.999502 2.999502 32 33 34 35
C -2.999502 2.999502 2.895036 33 32 34 35
C -2.968364 -2.999502 2.999502 34 32 33 35
C -1.407308 -1.782968 -2.997096 35 32 33 34
C -2.999502 2.988914 2.973106 36 37 38 39
C -2.915024 0.643332 2.993636 37 36 38 39
C 2.998553 2.633695 -2.982168 38 36 37 39
C -2.999502 2.999502 1.216671 39 36 37 38
C -1.044426 2.565217 -2.062393 40 41 42 43
C -1.951266 2.999502 2.999502 41 40 42 43
C 2.632133 -2.123541 2.999502 42 40 41 43
C 2.225188 -2.999502 -1.264070 43 40 41 42
C -2.935266 -2.993153 0.092341 44 45 46 47
C -2.999502 -2.998519 -2.999502 45 44 46 47
C -2.272115 -2.488018 -2.780359 46 44 45 47
C -2.929184 -2.999502 2.956093 47 44 45 46
C -0.078070 -2.999502 2.972723 48 49 50 51
C -2.999502 -1.907254 -1.655700 49 48 50 51
C -2.203832 -2.101618 2.988320 50 48 49 51
C -2.999502 -2.999502 -1.888555 51 48 49 50
C -2.996922 -1.760962 2.950939 52 53 54 55
C 2.999502 2.995371 -0.285349 53 52 54 55
C 1.743841 0.264677 -2.999502 54 52 53 55
C 2.987579 2.998058 2.999502 55 52 53 54
C -2.470843 -0.016238 2.999502 56 57 58 59
C 1.814055 2.999502 2.999502 57 56 58 59
C 2.999502 2.999502 2.999502 58 56 57 59
C -2.999502 2.999502 -2.999502 59 56 57 58
