60
Generated fullerene structure
C 2.999502 -2.761843 2.999502 0 1 2 3
C -2.999502 2.999502 2.999502 1 0 2 3
C -2.999502 -0.458203 2.999502 2 0 1 3
C 2.789206 2.999502 -2.679039 3 0 1 2
C -2.820438 2.999502 2.999502 4 5 6 7
C -2.999502 -2.998345 2.999502 5 4 6 7
C 2.991800 2.999502 2.999502 6 4 5 7
C 2.993243 -2.202420 2.998879 7 4 5 6
C 2.999502 -2.999502 2.999502 8 9 10 11
C 2.019096 2.999502 2.095296 9 8 10 11
C -1.486369 -1.529645 -2.999502 10 8 9 11
C -2.984816 2.999502 -2.999502 11 8 9 10
C -2.393793 -2.997738 2.999502 12 13 14 15
C 0.232420 -2.999502 -2.940993 13 12 14 15
C -2.997212 2.155044 2.152732 14 12 13 15
C -2.999502 2.999502 2.974160 15 12 13 14
C -2.999502 -2.999502 -2.999502 16 17 18 19
C 0.369558 2.999502 2.999502 17 16 18 19
C -2.997900 2.999502 2.999502 18 16 17 19
C 2.694822 -0.001129 -2.999502 19 16 17 18
C -2.999502 1.663429 2.994686 20 21 22 23
C -1.004714 2.998383 -2.999502 21 20 22 23
C -0.972050 -2.997687 2.999502 22 20 21 23
C -2.999502 -2.987884 2.999502 23 20 21 22
C 2.999502 2.998889 2.999502 24 25 26 27
C -2.999502 2.998245 -2.999502 25 24 26 27
C 2.987846 2.999502 2.999502 26 24 25 27
C 2.058638 -2.999502 -0.359774 27 24 25 26
C -2.999502 -2.891871 2.999502 28 29 30 31
C 2.999502 -2.999502 -2.862711 29 28 30 31
C -2.765391 1.183006 -2.735121 30 28 29 31
C 2.999502 2.542672 2.999502 31 28 29 30
C -2.999502 -2.997303 -2.999502 32 33 34 35
C 2.212826 2.737587 1.759726 33 32 34 35
C 2.999502 -2.971248 2.999502 34 32 33 35
C -2.994868 -2.999502 2.999502 35 32 33 34
C 2.072153 -2.970604 2.999502 36 37 38 39
C -2.996575 2.999502 2.996022 37 36 38 39
C 2.999502 -2.999502 -1.102702 38 36 37 39
C -2.888335 2.999502 2.999502 39 36 37 38
C -2.988725 2.822509 -2.999502 40 41 42 43
C -1.288456 1.942834 -2.971656 41 40 42 43
C 2.461764 -2.609676 -0.437150 42 40 41 43
C 2.999502 -2.993562 -0.002351 43 40 41 42
C -2.999502 -0.155778 -2.999502 44 45 46 47
C -2.999502 -2.999502 -2.986397 45 44 46 47
C -0.923070 -2.214790 2.990123 46 44 45 47
C -2.999502 2.999502 2.994082 47 44 45 46
C 2.999502 1.865943 -2.992600 48 49 50 51
C -0.182964 -2.999502 2.999502 49 48 50 51
C -2.999502 -2.998503 2.766417 50 48 49 51
C -2.999502 2.999502 2.999502 51 48 49 50
C -0.449392 -2.953834 -2.999502 52 53 54 55
C 1.516340 2.999502 2.909975 53 52 54 55
C 2.999502 -0.559115 -2.955565 54 52 53 55
C -0.157429 -2.999502 -2.861653 55 52 53 54
C 2.233535 2.997723 2.999502 56 57 58 59
C -1.962724 -1.857777 -2.999502 57 56 58 59
C 0.326037 -2.999502 -2.987533 58 56 57 59
C -2.973869 -1.692132 0.177243 59 56 57 58
