60
Generated fullerene structure
C -1.365998 -2.798167 -1.533125 0 1 2 3
C -2.999502 -2.999502 2.786947 1 0 2 3
C -2.999502 -2.982053 2.999502 2 0 1 3
C 2.999502 -2.995369 2.999502 3 0 1 2
C 2.999502 -2.557383 2.651198 4 5 6 7
C -2.999502 2.996301 -2.960332 5 4 6 7
C -2.999502 -2.980749 -2.999502 6 4 5 7
C -1.909670 1.538028 2.999502 7 4 5 6
C -2.999502 2.999502 2.936961 8 9 10 11
C 2.999502 -2.999502 2.964524 9 8 10 11
C 2.939637 -2.497688 2.999502 10 8 9 11
C -2.999502 2.999502 1.433899 11 8 9 10
C -2.999502 2.999502 -2.390131 12 13 14 15
C -0.454655 2.894812 2.999502 13 12 14 15
C 2.911782 -2.994410 2.968106 14 12 13 15
C -2.999502 -2.999502 2.987875 15 12 13 14
C 2.999502 2.358547 2.986266 16 17 18 19
C 2.999502 -2.247540 2.999502 17 16 18 19
C 2.703640 -2.996972 2.999502 18 16 17 19
C 2.991672 -2.999502 2.999502 19 16 17 18
C 2.650650 -2.999502 0.921959 20 21 22 23
C -2.999502 -1.915798 -2.988271 21 20 22 23
C 2.999502 2.999502 2.999502 22 20 21 23
C 2.999502 2.740051 2.999502 23 20 21 22
C 2.998409 0.343605 -2.502878 24 25 26 27
C -2.998420 2.999502 2.999502 25 24 26 27
C -2.999502 1.644639 -2.999502 26 24 25 27
C 2.997805 2.999502 2.999502 27 24 25 26
C -0.417155 2.999502 -1.846127 28 29 30 31
C -1.815770 -2.436558 -2.994107 29 28 30 31
C -2.999502 2.465138 2.594623 30 28 29 31
C -0.924919 -2.223738 -1.674441 31 28 29 30
C 2.895268 -2.541659 2.999502 32 33 34 35
C 2.956702 2.999502 -2.998496 33 32 34 35
C -0.234806 -2.999023 2.999502 34 32 33 35
C -2.999502 1.485598 2.999502 35 32 33 34
C -2.999502 2.999502 2.999502 36 37 38 39
C -1.726509 2.999502 -2.999502 37 36 38 39
C -2.999502 2.975848 -1.180972 38 36 37 39
C -0.807405 -2.999502 -2.566303 39 36 37 38
C -2.770071 2.168622 2.999502 40 41 42 43
C -1.462323 1.187322 1.668935 41 40 42 43
C 1.777099 -2.977858 2.999502 42 40 41 43
C -2.999502 -2.999502 -2.975705 43 40 41 42
C -2.562147 -2.999502 -2.998214 44 45 46 47
C -2.991624 -2.989362 2.999502 45 44 46 47
C -2.998533 -2.999502 2.693206 46 44 45 47
C 2.414937 2.984886 2.999502 47 44 45 46
C 2.988186 2.999502 2.999502 48 49 50 51
C -2.999502 2.999502 -2.988496 49 48 50 51
C -2.999502 2.991357 2.999502 50 48 49 51
C -2.999502 2.985226 2.937711 51 48 49 50
C 2.999502 -2.973435 1.285595 52 53 54 55
C -0.592122 -2.994388 -2.994078 53 52 54 55
C 1.150364 -2.999502 -2.985382 54 52 53 55
C -2.923810 2.989975 -2.999502 55 52 53 54
C -0.195388 -2.999502 -2.987930 56 57 58 59
C -2.999502 2.999502 -2.979572 57 56 58 59
C 2.442422 2.999502 2.983121 58 56 57 59
C 2.999502 2.999502 -1.494670 59 56 57 58
