60
Generated fullerene structure
C -2.980032 -2.999502 -1.251874 0 1 2 3
C 2.454639 -2.977211 2.999502 1 0 2 3
C 2.760832 -2.998336 2.272565 2 0 1 3
C -2.423142 2.999502 -2.999502 3 0 1 2
C -2.999502 -1.741701 2.999502 4 5 6 7
C 2.149501 -2.993156 2.999502 5 4 6 7
C -1.829427 2.936463 2.999502 6 4 5 7
C -2.649917 -2.536938 -2.999502 7 4 5 6
C -2.999502 -2.998510 2.877691 8 9 10 11
C 2.999502 -2.992806 2.999502 9 8 10 11
C -0.746712 2.999502 2.999502 10 8 9 11
C -2.999502 2.833828 -2.942188 11 8 9 10
C 1.379150 2.999502 -1.148536 12 13 14 15
C 2.992861 -2.927982 2.999502 13 12 14 15
C -2.999502 -2.618461 2.999502 14 12 13 15
C -2.774578 -2.040090 2.999502 15 12 13 14
C -2.999502 2.999502 -2.999502 16 17 18 19
C 2.042954 2.999502 2.999502 17 16 18 19
C 2.508950 -0.541204 -2.990924 18 16 17 19
C -2.999502 2.999502 2.477637 19 16 17 18
C -2.999502 -2.788454 0.087683 20 21 22 23
C 2.353381 2.999502 -2.999502 21 20 22 23
C -0.660912 2.998847 -0.648530 22 20 21 23
C 2.999502 -2.993179 2.999502 23 20 21 22
C -2.999502 2.995423 2.999502 24 25 26 27
C 2.999502 -2.680264 2.992491 25 24 26 27
C 2.157883 2.999502 0.155161 26 24 25 27
C -1.373063 2.999502 2.999502 27 24 25 26
C 2.507313 -2.954038 2.999502 28 29 30 31
C 2.999502 2.999502 2.999502 29 28 30 31
C 2.999502 1.759236 2.980822 30 28 29 31
C -2.999502 2.999502 2.999502 31 28 29 30
C 2.999502 -2.720544 2.999502 32 33 34 35
C 2.395020 2.999502 -2.999502 33 32 34 35
C -2.999502 2.999502 -2.999502 34 32 33 35
C 2.999502 -2.501093 2.285027 35 32 33 34
C -2.999502 -2.999502 -1.718194 36 37 38 39
C -2.779365 2.999502 2.877651 37 36 38 39
C -2.998087 2.999502 -2.999502 38 36 37 39
C 2.999502 -2.999502 -2.997007 39 36 37 38
C -2.999502 -2.936711 -1.138759 40 41 42 43
C -2.996523 -2.972452 -0.591582 41 40 42 43
C -2.824085 2.999502 -0.889587 42 40 41 43
C 2.866749 -1.896480 -0.149741 43 40 41 42
C -2.999502 -2.941333 2.988475 44 45 46 47
C 1.527186 2.999502 -2.990484 45 44 46 47
C -2.999502 0.789691 2.168937 46 44 45 47
C 0.185171 -2.999502 -2.999502 47 44 45 46
C -1.546167 -2.999502 -1.712061 48 49 50 51
C -2.999502 2.999502 2.999502 49 48 50 51
C -2.902286 2.820923 -2.999502 50 48 49 51
C 2.999502 -2.909452 2.999502 51 48 49 50
C -1.968803 -2.999502 2.915654 52 53 54 55
C 2.997873 0.761364 2.999502 53 52 54 55
C 2.999502 1.574681 -2.959470 54 52 53 55
C 2.999502 2.998686 -2.999502 55 52 53 54
C 2.988630 -1.120163 2.999502 56 57 58 59
C 2.746703 -2.999502 2.995919 57 56 58 59
C 2.999502 -1.334031 -2.730559 58 56 57 59
C -2.999502 -0.575565 2.999502 59 56 57 58
