60
Generated fullerene structure
C -2.999502 -0.178997 2.999502 0 1 2 3
C -0.045811 2.767043 -2.998168 1 0 2 3
C 2.979271 -2.999502 2.997264 2 0 1 3
C 2.999502 0.379989 1.747681 3 0 1 2
C -2.991465 1.209385 2.982530 4 5 6 7
C -0.117963 2.999502 -2.058942 5 4 6 7
C 2.999502 1.571840 2.999502 6 4 5 7
C -2.986153 -2.999502 -2.999502 7 4 5 6
C -2.989892 1.304940 -2.924611 8 9 10 11
C 2.999502 2.873023 -0.351790 9 8 10 11
C -2.999502 -2.999502 2.999502 10 8 9 11
C -2.999502 2.808405 0.790146 11 8 9 10
C 2.999502 2.701734 2.392019 12 13 14 15
C 2.965275 -2.986202 2.999502 13 12 14 15
C 2.938427 2.999502 -2.999502 14 12 13 15
C -2.332294 -2.799285 2.103081 15 12 13 14
C -2.916859 2.999502 0.277744 16 17 18 19
C -2.924426 -2.998431 2.999502 17 16 18 19
C 2.811132 -2.751555 -2.512599 18 16 17 19
C 2.973059 -2.547875 0.018517 19 16 17 18
C -2.999502 2.987114 1.783868 20 21 22 23
C -2.999502 -2.999502 2.999502 21 20 22 23
C 2.999502 -2.244486 -2.999502 22 20 21 23
C -2.784051 -2.999502 2.999502 23 20 21 22
C -2.999502 2.999502 -2.592185 24 25 26 27
C -2.999502 -2.969329 2.999502 25 24 26 27
C 2.877675 1.362565 2.891677 26 24 25 27
C -2.999502 -2.999502 2.455775 27 24 25 26
C 2.999502 -2.999502 -1.014484 28 29 30 31
C -2.992064 2.999502 -2.999502 29 28 30 31
C -0.586935 2.573278 2.999502 30 28 29 31
C -2.991570 -2.999502 -2.964566 31 28 29 30
C 2.910739 -2.991711 -2.996308 32 33 34 35
C -1.319854 2.977803 2.999502 33 32 34 35
C -2.554740 2.038255 2.999502 34 32 33 35
C 2.999502 2.999502 0.506633 35 32 33 34
C 2.999502 -2.999502 2.999502 36 37 38 39
C 2.999502 2.999502 1.715955 37 36 38 39
C -1.539452 2.999502 1.244823 38 36 37 39
C -2.003808 -2.999502 2.570618 39 36 37 38
C 2.598591 -2.999502 2.999150 40 41 42 43
C 2.999502 -2.992074 -2.976723 41 40 42 43
C -2.999502 0.353098 -2.204279 42 40 41 43
C 2.990424 2.999502 2.999502 43 40 41 42
C -2.996214 -2.995829 2.236147 44 45 46 47
C 2.899328 -2.987428 -2.999502 45 44 46 47
C -1.127053 2.996773 2.999502 46 44 45 47
C -2.973987 2.999502 -2.986455 47 44 45 46
C 1.925853 2.999502 2.999502 48 49 50 51
C -2.999502 -2.999502 2.999502 49 48 50 51
C -2.999502 2.999502 -2.999502 50 48 49 51
C -2.999502 -0.329989 2.999502 51 48 49 50
C -2.999502 2.941731 -2.324516 52 53 54 55
C 2.997136 2.999502 2.999502 53 52 54 55
C -2.969840 -2.999502 2.999502 54 52 53 55
C -2.433061 -2.999502 2.999502 55 52 53 54
C 2.999502 -2.995333 2.999502 56 57 58 59
C 2.999502 -1.825181 -2.999502 57 56 58 59
C 0.641348 0.199979 2.999502 58 56 57 59
C 1.499283 1.093322 -2.954603 59 56 57 58
