60
Generated fullerene structure
C 2.997606 -0.177612 -2.835686 0 1 2 3
C 2.999502 -2.491498 1.615166 1 0 2 3
C -2.968342 2.995559 -1.666666 2 0 1 3
C -2.999502 -2.999502 2.999502 3 0 1 2
C -2.999502 1.569225 -2.997889 4 5 6 7
C 2.883524 2.272053 2.395741 5 4 6 7
C 2.999502 2.998752 -2.821357 6 4 5 7
C 2.976050 -2.977366 0.426959 7 4 5 6
C 0.435816 2.996817 -2.999502 8 9 10 11
C -2.991990 0.778424 2.999502 9 8 10 11
C 2.419446 -0.115001 2.999502 10 8 9 11
C -1.346283 2.999502 1.153057 11 8 9 10
C 2.999502 -1.915475 -2.999502 12 13 14 15
C 2.890392 -2.999502 -2.677477 13 12 14 15
C -2.999502 -2.999502 -2.999502 14 12 13 15
C -2.999502 2.999502 0.870021 15 12 13 14
C -0.086859 0.061361 -2.999502 16 17 18 19
C -2.999502 -2.386539 1.326332 17 16 18 19
C -2.162787 -2.999502 2.999502 18 16 17 19
C -2.999502 -2.563111 2.000071 19 16 17 18
C 2.656202 0.342864 -2.994907 20 21 22 23
C 2.889565 -2.999502 2.999502 21 20 22 23
C -2.999502 2.999502 2.999502 22 20 21 23
C -2.999502 -2.007623 2.999502 23 20 21 22
C -2.999502 -2.999502 2.999349 24 25 26 27
C 2.999502 2.720001 2.226355 25 24 26 27
C 2.999502 1.521297 -2.999502 26 24 25 27
C -0.293091 2.999502 -0.749706 27 24 25 26
C -2.999502 2.553599 -2.540966 28 29 30 31
C -2.969487 2.125530 -2.009055 29 28 30 31
C -2.999502 2.999502 1.282092 30 28 29 31
C -2.999502 2.999502 -2.194072 31 28 29 30
C -2.999502 -2.985913 2.993449 32 33 34 35
C -2.999502 2.996941 -0.975885 33 32 34 35
C 2.988669 -0.590091 -2.998329 34 32 33 35
C 2.426126 -1.843748 -2.999502 35 32 33 34
C -2.999502 2.999502 -2.600310 36 37 38 39
C 2.649617 -0.175573 2.999502 37 36 38 39
C -2.487650 -2.999502 2.993233 38 36 37 39
C -2.094507 2.999502 2.940839 39 36 37 38
C 1.464316 -2.999502 -2.999502 40 41 42 43
C 2.983565 2.991552 -2.999502 41 40 42 43
C -2.510275 -2.987733 -2.857308 42 40 41 43
C 2.999502 2.999502 -2.999502 43 40 41 42
C 2.999502 -2.304087 -2.999502 44 45 46 47
C -2.999502 2.999502 2.951106 45 44 46 47
C -2.999502 2.935966 2.992956 46 44 45 47
C -0.888867 2.999502 -2.658001 47 44 45 46
C 2.999502 1.030135 -2.999502 48 49 50 51
C -2.323884 -2.999502 -0.117683 49 48 50 51
C -2.999502 -0.513306 1.599160 50 48 49 51
C -2.999502 0.301196 -2.345805 51 48 49 50
C 2.999502 2.999502 2.999502 52 53 54 55
C -2.999502 2.999502 2.999502 53 52 54 55
C 2.999502 -1.563074 -2.536142 54 52 53 55
C 2.990891 -2.036913 2.999502 55 52 53 54
C -2.999502 -1.344917 2.999502 56 57 58 59
C 2.999502 -2.999502 -2.897678 57 56 58 59
C 2.999502 -2.518085 -0.354978 58 56 57 59
C -2.999502 2.999502 2.999502 59 56 57 58
