60
Generated fullerene structure
C -2.996039 -2.996436 2.999502 0 1 2 3
C -2.990403 -2.835024 1.533120 1 0 2 3
C 2.821855 0.433201 2.999502 2 0 1 3
C -2.999502 -2.704932 2.999502 3 0 1 2
C 2.639579 2.999502 2.032161 4 5 6 7
C -2.533000 2.977121 2.942902 5 4 6 7
C -2.835495 2.990998 2.999502 6 4 5 7
C 2.942276 1.256667 2.668683 7 4 5 6
C 2.999502 2.700938 2.999502 8 9 10 11
C -1.881299 -1.657433 2.999502 9 8 10 11
C 2.999502 2.999502 2.999502 10 8 9 11
C -2.997221 2.965353 -2.999502 11 8 9 10
C 2.999502 -2.999502 -2.999502 12 13 14 15
C 2.999502 2.321161 -1.365096 13 12 14 15
C -2.999502 -2.999502 2.220528 14 12 13 15
C -2.999502 2.999502 2.999502 15 12 13 14
C -2.992128 2.999502 2.999502 16 17 18 19
C 2.504681 2.999502 -2.999502 17 16 18 19
C -2.999502 2.999502 -2.999502 18 16 17 19
C -2.999502 -2.999502 -2.986402 19 16 17 18
C 2.999502 2.999502 -2.997128 20 21 22 23
C -0.252094 0.709905 2.161311 21 20 22 23
C -2.999502 2.023757 2.999502 22 20 21 23
C 2.711137 2.595923 -2.726865 23 20 21 22
C -2.229935 2.999502 1.580744 24 25 26 27
C -2.543503 2.999502 2.999502 25 24 26 27
C -2.999502 -0.919834 -1.974481 26 24 25 27
C -2.991752 -2.993118 1.179245 27 24 25 26
C -2.999502 -2.999502 -2.593642 28 29 30 31
C 2.999502 -1.283987 2.999502 29 28 30 31
C -2.999502 -2.976431 -2.934888 30 28 29 31
C -2.999502 2.992379 0.145111 31 28 29 30
C -2.997519 -0.707901 -1.397592 32 33 34 35
C -2.999502 2.999502 2.999502 33 32 34 35
C 2.956380 2.999502 2.999502 34 32 33 35
C -0.402839 -2.090567 2.727984 35 32 33 34
C -2.999502 -0.263208 -2.668076 36 37 38 39
C 2.998337 -2.999502 1.808208 37 36 38 39
C 2.991898 2.988807 -2.892344 38 36 37 39
C -2.966049 1.527644 -1.806571 39 36 37 38
C -1.716882 2.999502 2.513696 40 41 42 43
C -2.636135 2.598789 2.999502 41 40 42 43
C -2.999502 2.686998 -2.962416 42 40 41 43
C -2.944332 -2.999502 -1.139823 43 40 41 42
C 2.999502 0.629654 2.975554 44 45 46 47
C -2.999502 2.999502 2.138324 45 44 46 47
C -0.086279 1.119329 2.891855 46 44 45 47
C -2.999502 2.999502 -1.275765 47 44 45 46
C 2.999502 -2.999502 -2.908304 48 49 50 51
C 2.998534 2.996605 -2.987120 49 48 50 51
C -0.063833 -2.700084 0.369046 50 48 49 51
C 0.073319 2.999502 -2.999502 51 48 49 50
C -2.983454 2.999502 2.999502 52 53 54 55
C -2.999502 2.997912 2.999502 53 52 54 55
C -2.949672 0.440853 -2.937700 54 52 53 55
C 2.919266 -2.376982 2.999502 55 52 53 54
C 2.999502 -1.285868 0.609076 56 57 58 59
C -2.999502 -2.999502 -2.993970 57 56 58 59
C -2.999502 -2.999502 -2.999502 58 56 57 59
C -2.999502 -2.999502 -2.211633 59 56 57 58
