60
Generated fullerene structure
C -2.999502 1.855805 -2.999502 0 1 2 3
C 2.999502 -2.999502 2.999502 1 0 2 3
C -2.497644 -2.999502 -0.916469 2 0 1 3
C 2.999024 2.999502 2.999502 3 0 1 2
C -2.999502 2.999502 1.058045 4 5 6 7
C -1.574427 -2.999502 2.999502 5 4 6 7
C 2.999502 -2.965636 2.999502 6 4 5 7
C -0.355158 -2.831496 -2.993551 7 4 5 6
C -2.152984 2.188002 2.966654 8 9 10 11
C -2.999502 1.519112 -2.999502 9 8 10 11
C -2.620066 0.005892 -2.998738 10 8 9 11
C 2.987695 2.930489 2.937958 11 8 9 10
C 2.990381 2.929749 2.999502 12 13 14 15
C -2.999502 0.921417 -1.466264 13 12 14 15
C 2.571830 2.999502 2.991479 14 12 13 15
C 2.852680 2.999502 -0.169040 15 12 13 14
C -2.982369 2.605380 1.254320 16 17 18 19
C 0.284604 -2.999502 -2.739115 17 16 18 19
C -2.999502 2.960652 2.880488 18 16 17 19
C 2.178877 -0.253139 2.964050 19 16 17 18
C -0.744417 2.999502 -2.999502 20 21 22 23
C -2.995796 0.139562 2.999502 21 20 22 23
C -2.999502 -2.997524 2.999502 22 20 21 23
C 1.814149 2.999502 -2.998883 23 20 21 22
C -2.999502 0.742801 1.416253 24 25 26 27
C 2.729458 2.999502 -1.577291 25 24 26 27
C -2.967926 -2.999502 2.999502 26 24 25 27
C 2.962477 2.999502 -2.732042 27 24 25 26
C -2.997599 -2.995018 2.999502 28 29 30 31
C -2.999502 2.999502 2.999502 29 28 30 31
C 2.999502 -2.789012 2.999502 30 28 29 31
C -2.999502 -2.999502 2.999502 31 28 29 30
C -2.858692 -1.705324 2.927875 32 33 34 35
C 2.341685 2.372084 0.256798 33 32 34 35
C -2.986596 1.593923 2.999502 34 32 33 35
C 0.982611 -2.913622 1.021773 35 32 33 34
C -2.999502 -2.999502 2.999502 36 37 38 39
C 2.999502 2.999502 0.135380 37 36 38 39
C -2.999502 -0.696313 -2.999502 38 36 37 39
C -2.999502 2.999502 2.466446 39 36 37 38
C -2.999502 0.091491 2.999502 40 41 42 43
C -2.999502 -2.999502 0.757523 41 40 42 43
C -2.999502 0.986019 2.999502 42 40 41 43
C -2.838180 -2.999502 -2.979495 43 40 41 42
C -2.999502 1.976192 1.164667 44 45 46 47
C -2.999502 2.999502 2.999502 45 44 46 47
C -2.999502 1.764577 2.999502 46 44 45 47
C -2.999502 2.999502 0.159453 47 44 45 46
C -2.959980 -2.999502 0.410972 48 49 50 51
C 2.161763 0.585891 -2.994727 49 48 50 51
C 2.999328 2.999502 2.999495 50 48 49 51
C 2.999502 2.999502 -2.999502 51 48 49 50
C 2.999502 2.999502 2.646504 52 53 54 55
C -2.996873 -2.999502 2.945765 53 52 54 55
C -1.546624 2.418922 -0.264938 54 52 53 55
C -2.999502 2.999502 2.972495 55 52 53 54
C -2.999502 -2.999502 2.999502 56 57 58 59
C -2.961406 -0.004941 -2.998281 57 56 58 59
C -1.359664 -2.999502 1.804964 58 56 57 59
C -2.999502 2.999502 -1.936684 59 56 57 58
