60
Generated fullerene structure
C 2.999502 2.999502 2.999502 0 1 2 3
C -2.999502 -2.893176 -2.986662 1 0 2 3
C -0.873688 -2.675209 2.968301 2 0 1 3
C 2.022794 -2.999502 0.676682 3 0 1 2
C -2.995784 -2.999502 2.999502 4 5 6 7
C -2.204898 2.994427 -0.286237 5 4 6 7
C 2.999502 -2.999502 2.213906 6 4 5 7
C -2.387452 2.999502 0.487592 7 4 5 6
C -1.371839 0.664601 -2.163265 8 9 10 11
C 2.999502 0.856635 -2.521392 9 8 10 11
C 2.999502 1.482878 1.017196 10 8 9 11
C 2.992896 -1.665439 2.999502 11 8 9 10
C -1.744342 -2.999502 -2.986028 12 13 14 15
C -2.988895 1.848987 -1.989660 13 12 14 15
C -1.843766 2.999502 2.999502 14 12 13 15
C -2.988984 1.114733 2.999502 15 12 13 14
C 0.233632 -2.999502 2.999502 16 17 18 19
C -2.999502 -2.999502 2.592556 17 16 18 19
C 2.998574 -2.238440 -0.599796 18 16 17 19
C -2.585186 2.999502 -2.075165 19 16 17 18
C 2.999502 -0.885600 -1.805982 20 21 22 23
C 2.999502 -0.744040 -2.407366 21 20 22 23
C -0.916136 -2.999502 2.999502 22 20 21 23
C -2.318347 -2.999502 2.999502 23 20 21 22
C 2.999502 0.611512 -2.999502 24 25 26 27
C -2.999502 2.999502 2.910121 25 24 26 27
C -2.692161 -2.956186 -2.999502 26 24 25 27
C -2.999502 -2.999502 2.999502 27 24 25 26
C 2.913923 2.987774 2.999502 28 29 30 31
C -1.169038 2.970240 2.999502 29 28 30 31
C 2.999502 2.999502 0.983383 30 28 29 31
C -0.092676 0.820160 2.711667 31 28 29 30
C -2.999502 -2.488692 1.906213 32 33 34 35
C 2.963886 -2.999502 1.062492 33 32 34 35
C -2.999502 0.882736 -2.971144 34 32 33 35
C -2.996645 -2.984289 -2.981269 35 32 33 34
C 1.602045 2.999502 2.857263 36 37 38 39
C -2.999502 1.096206 2.999502 37 36 38 39
C -2.326732 -2.999502 -0.765562 38 36 37 39
C -2.999502 2.999502 2.333244 39 36 37 38
C -2.288412 2.999502 -1.258278 40 41 42 43
C -2.986801 2.051371 -2.699887 41 40 42 43
C -2.990996 2.999502 -2.999502 42 40 41 43
C -2.896562 -1.601040 2.999502 43 40 41 42
C 2.999502 -2.999502 2.999502 44 45 46 47
C -2.999502 -2.999502 1.331239 45 44 46 47
C -2.999502 2.958275 -1.126284 46 44 45 47
C 2.718651 0.887009 2.959699 47 44 45 46
C -2.999502 2.999502 1.132499 48 49 50 51
C -0.773618 -1.518016 -1.656586 49 48 50 51
C -1.972029 -2.995974 -1.817189 50 48 49 51
C -2.999502 -2.999502 -1.759305 51 48 49 50
C 2.999502 -2.994469 2.797838 52 53 54 55
C 2.941229 -2.370464 -0.840025 53 52 54 55
C 2.999502 2.999502 -2.999502 54 52 53 55
C -1.413056 2.896984 2.570474 55 52 53 54
C -1.899283 -2.473010 -2.999502 56 57 58 59
C -2.890918 -2.869338 2.999502 57 56 58 59
C -2.999502 0.414476 -2.999502 58 56 57 59
C 2.996364 -2.998092 1.940085 59 56 57 58
