60
Generated fullerene structure
C 1.913044 -2.999502 2.999502 0 1 2 3
C 2.999502 -2.980172 -2.999502 1 0 2 3
C -1.912461 -2.999502 2.999502 2 0 1 3
C 2.999502 -2.999502 -2.999502 3 0 1 2
C -2.999502 -2.998414 2.999502 4 5 6 7
C 0.120056 -0.431115 -2.113043 5 4 6 7
C -2.840079 2.987113 -2.999502 6 4 5 7
C -2.999502 1.845619 2.999502 7 4 5 6
C -2.398258 2.984274 -2.999502 8 9 10 11
C -2.999502 0.978327 -2.999502 9 8 10 11
C -2.999502 -2.999502 2.796300 10 8 9 11
C 2.972891 2.999502 0.032141 11 8 9 10
C 2.999502 0.477082 2.999502 12 13 14 15
C -2.482288 -2.999502 -2.999502 13 12 14 15
C -2.999502 -0.411890 2.999502 14 12 13 15
C 2.999502 2.999502 -2.999502 15 12 13 14
C -2.999502 -1.433115 -2.999502 16 17 18 19
C -2.999502 2.997364 2.999502 17 16 18 19
C 0.579826 1.866803 -0.693119 18 16 17 19
C -2.999502 2.999502 2.999502 19 16 17 18
C -2.999502 -2.999502 -2.230447 20 21 22 23
C -2.999502 -2.957297 2.999502 21 20 22 23
C 1.642208 -1.543609 -2.878903 22 20 21 23
C -2.915718 -2.760550 -2.999502 23 20 21 22
C -2.417085 -2.968489 -2.999502 24 25 26 27
C 2.417518 -2.999502 -2.677540 25 24 26 27
C 2.982477 -1.931002 2.999502 26 24 25 27
C 2.999502 2.999502 2.999502 27 24 25 26
C -1.503619 -2.687139 -2.999502 28 29 30 31
C 2.999502 2.999502 2.999502 29 28 30 31
C 2.999502 2.921919 -1.424986 30 28 29 31
C -2.999502 2.391399 -0.553906 31 28 29 30
C -2.999502 -2.999310 2.999502 32 33 34 35
C 2.951314 -2.993767 2.999502 33 32 34 35
C -2.999502 -2.999502 2.999502 34 32 33 35
C -2.996873 -2.999502 2.722491 35 32 33 34
C -2.996758 -2.999502 2.997567 36 37 38 39
C -2.996423 -2.943687 2.645466 37 36 38 39
C 2.998192 -2.999502 2.772596 38 36 37 39
C -2.999502 -0.474114 2.988982 39 36 37 38
C -1.899599 -2.999502 -2.999502 40 41 42 43
C 2.999502 -2.999502 2.975204 41 40 42 43
C -2.999502 0.893821 2.999502 42 40 41 43
C -2.866061 2.918827 -0.890881 43 40 41 42
C -2.432269 2.999502 -2.999502 44 45 46 47
C 2.361852 2.999502 2.626153 45 44 46 47
C 1.391219 2.999502 -2.999502 46 44 45 47
C -2.999502 2.916156 -1.996843 47 44 45 46
C 2.999502 2.997052 2.999502 48 49 50 51
C -2.999502 -2.999502 2.999502 49 48 50 51
C -2.998215 2.999502 2.397759 50 48 49 51
C 2.681596 2.999502 -2.785204 51 48 49 50
C -2.994091 -2.999502 -2.999502 52 53 54 55
C -0.717647 -2.999502 -2.977894 53 52 54 55
C 0.332536 -2.999502 -2.996738 54 52 53 55
C -0.099628 2.620441 -2.982391 55 52 53 54
C 2.986346 2.999502 -2.999502 56 57 58 59
C -2.999502 -2.999502 2.721316 57 56 58 59
C -0.976557 2.099524 2.999502 58 56 57 59
C 2.999502 2.999502 2.999502 59 56 57 58
