60
Generated fullerene structure
C 2.993614 -2.991770 -2.999502 0 1 2 3
C 2.999502 -2.989986 2.999502 1 0 2 3
C 2.999502 -0.762033 2.949490 2 0 1 3
C -2.690622 2.999502 -1.649532 3 0 1 2
C -2.999502 -1.670040 -2.999502 4 5 6 7
C 2.998112 -2.999502 -1.951351 5 4 6 7
C 1.533428 -2.972963 2.999502 6 4 5 7
C -2.519744 2.999502 2.999502 7 4 5 6
C -2.999502 2.331879 -2.972703 8 9 10 11
C 0.801669 -2.754815 -2.999502 9 8 10 11
C 1.808654 -2.970250 -2.447891 10 8 9 11
C -2.372388 2.999502 -2.308105 11 8 9 10
C 2.699251 2.999502 2.999502 12 13 14 15
C -2.993810 2.999502 -2.965017 13 12 14 15
C -2.999502 2.850087 2.999502 14 12 13 15
C -2.999502 -2.996476 2.999502 15 12 13 14
C -2.997709 2.800521 2.999502 16 17 18 19
C -2.999502 -1.829188 -2.724060 17 16 18 19
C 2.999502 1.916493 -1.081577 18 16 17 19
C 0.037501 -2.999502 2.988091 19 16 17 18
C -2.963153 -2.917578 1.096821 20 21 22 23
C 0.146442 -1.582304 -2.933736 21 20 22 23
C -2.989002 0.879655 2.999502 22 20 21 23
C 1.202506 -2.999502 1.127350 23 20 21 22
C -2.999502 -0.830277 2.999502 24 25 26 27
C -2.999502 2.999502 -1.444000 25 24 26 27
C -2.582457 -2.998127 2.698285 26 24 25 27
C 2.999502 -2.999502 2.999502 27 24 25 26
C -2.999502 -2.999502 2.999502 28 29 30 31
C 2.196291 1.276842 -2.998424 29 28 30 31
C -1.716443 2.999502 -2.965448 30 28 29 31
C -0.675608 2.695955 2.650092 31 28 29 30
C 0.231749 -1.605081 -1.021809 32 33 34 35
C -2.999502 2.999502 2.999502 33 32 34 35
C -2.861961 2.988894 2.999146 34 32 33 35
C -0.216448 -2.830188 2.999502 35 32 33 34
C 2.974140 1.922434 -2.391937 36 37 38 39
C -2.999502 -2.999502 -2.954164 37 36 38 39
C -2.999502 2.014646 -2.680501 38 36 37 39
C -2.590968 -2.923782 2.485196 39 36 37 38
C 2.956009 2.684800 2.530082 40 41 42 43
C -2.999502 -2.999502 2.999502 41 40 42 43
C 0.906770 -2.999502 2.999502 42 40 41 43
C -2.996436 -2.998445 -2.801226 43 40 41 42
C -2.999502 -0.352937 2.994560 44 45 46 47
C -2.999502 2.934953 -2.999502 45 44 46 47
C -2.999502 2.999502 2.999502 46 44 45 47
C 2.895387 -2.999502 -2.990652 47 44 45 46
C -2.999502 -2.999502 -2.999502 48 49 50 51
C -1.911381 -1.234784 2.999502 49 48 50 51
C -2.999502 2.227928 2.999502 50 48 49 51
C -2.999502 -2.983130 -2.950477 51 48 49 50
C -2.999502 -2.999502 2.999502 52 53 54 55
C 2.999502 2.997988 2.350531 53 52 54 55
C 1.423876 -2.999502 -2.997289 54 52 53 55
C -1.427633 2.999502 2.999502 55 52 53 54
C 2.950422 2.994469 1.651094 56 57 58 59
C -1.137650 2.007904 -2.999502 57 56 58 59
C 2.801370 2.994499 0.807442 58 56 57 59
C -2.535172 2.989810 -2.999502 59 56 57 58
