60
Generated fullerene structure
C -2.999502 2.999502 2.999502 0 1 2 3
C -2.999502 2.998286 -2.999502 1 0 2 3
C 2.999502 -2.999502 2.999502 2 0 1 3
C -2.987639 -2.999502 -2.997607 3 0 1 2
C -2.999502 -2.693772 -1.893681 4 5 6 7
C -2.647886 2.999502 2.989121 5 4 6 7
C 2.603273 2.999502 -0.449855 6 4 5 7
C 2.867756 2.999502 2.999502 7 4 5 6
C 2.999502 2.999502 2.999502 8 9 10 11
C -2.994504 -0.761760 2.999502 9 8 10 11
C -1.552984 -1.255798 2.919252 10 8 9 11
C -1.130745 -2.884364 -2.715719 11 8 9 10
C 2.996423 -2.998041 -2.811545 12 13 14 15
C -2.906429 -2.999502 0.283413 13 12 14 15
C -2.999502 2.999502 2.999502 14 12 13 15
C -2.999502 2.999502 -0.102107 15 12 13 14
C -2.999502 -2.999315 2.996524 16 17 18 19
C -2.999502 2.999322 -0.634503 17 16 18 19
C -1.706277 2.998837 -2.999502 18 16 17 19
C -2.999502 -2.999502 -2.999502 19 16 17 18
C -2.999502 -2.999502 1.249135 20 21 22 23
C -2.999502 -2.999502 2.999502 21 20 22 23
C 1.449623 2.999502 2.067538 22 20 21 23
C -2.999502 2.999502 -2.999502 23 20 21 22
C 2.999502 -2.999502 -1.751687 24 25 26 27
C -2.999502 2.461043 -0.264045 25 24 26 27
C -2.989559 1.542322 -2.588668 26 24 25 27
C -2.999502 -2.999502 2.226609 27 24 25 26
C 2.999502 -2.474427 -2.420805 28 29 30 31
C -2.999502 -2.999502 -1.509654 29 28 30 31
C -2.999502 2.921918 2.999502 30 28 29 31
C 2.999502 -2.999502 -2.253629 31 28 29 30
C -2.995408 2.999502 -2.999502 32 33 34 35
C 2.999502 -2.306001 -2.309313 33 32 34 35
C -2.998630 -2.999502 2.999502 34 32 33 35
C 2.997748 -2.653719 2.897454 35 32 33 34
C -0.550958 2.000367 -2.999502 36 37 38 39
C 0.801721 -2.999089 2.999502 37 36 38 39
C -2.999502 -2.990706 -2.089840 38 36 37 39
C -0.732760 2.414097 1.953556 39 36 37 38
C -2.473442 2.999502 -1.530372 40 41 42 43
C -0.466571 -2.930072 2.996356 41 40 42 43
C -2.990510 -2.971451 -1.776089 42 40 41 43
C -2.999502 -2.999502 2.999502 43 40 41 42
C 2.999502 2.215564 -2.420019 44 45 46 47
C -2.632289 2.272615 1.354450 45 44 46 47
C 0.087619 -2.999502 2.999502 46 44 45 47
C -2.999502 -2.338870 2.999502 47 44 45 46
C -2.999502 -2.999502 2.999502 48 49 50 51
C -2.997847 2.580263 2.152830 49 48 50 51
C 2.428444 -2.997333 -1.008009 50 48 49 51
C -2.967297 2.938734 1.031157 51 48 49 50
C -2.999502 -2.999502 0.589658 52 53 54 55
C 2.999502 2.831966 2.048880 53 52 54 55
C -2.999502 2.999502 2.999502 54 52 53 55
C -2.094411 2.999502 -2.849409 55 52 53 54
C 1.215620 1.025716 -2.999502 56 57 58 59
C -2.360176 -2.999502 1.178352 57 56 58 59
C -2.416875 2.999502 -2.999502 58 56 57 59
C -2.662703 -2.998470 -2.988441 59 56 57 58
