60
Generated fullerene structure
C -2.999502 -2.999502 -2.861519 0 1 2 3
C 2.999502 2.999502 -2.999502 1 0 2 3
C -2.997280 -2.999502 -2.999502 2 0 1 3
C -2.996546 -2.999502 -2.999502 3 0 1 2
C 2.655089 2.999502 -2.999502 4 5 6 7
C -2.910754 -2.999502 2.160065 5 4 6 7
C -2.999502 -2.777021 2.999502 6 4 5 7
C 2.999502 -2.993352 0.058338 7 4 5 6
C 2.996171 -2.999502 2.999502 8 9 10 11
C -2.999502 2.999502 -2.970566 9 8 10 11
C 2.996142 2.999502 2.999502 10 8 9 11
C 2.999502 2.999502 2.999502 11 8 9 10
C -2.999502 2.999502 2.999502 12 13 14 15
C 2.997241 2.999502 -2.999407 13 12 14 15
C 2.999502 1.049060 -2.913843 14 12 13 15
C 2.732479 2.454740 2.089051 15 12 13 14
C -2.999502 2.994689 2.723113 16 17 18 19
C 2.543107 -2.999502 2.999502 17 16 18 19
C 0.956353 2.821694 -2.809594 18 16 17 19
C -2.999502 2.999502 -2.999502 19 16 17 18
C 2.995943 2.972874 -2.999502 20 21 22 23
C 2.999502 2.999502 2.965549 21 20 22 23
C 2.548831 -2.999502 -2.999502 22 20 21 23
C -2.999502 2.999502 2.221123 23 20 21 22
C -2.963551 2.999502 2.976356 24 25 26 27
C -0.149296 2.768201 -2.999502 25 24 26 27
C -2.922254 -2.999502 -2.999502 26 24 25 27
C -0.684934 -2.632527 2.995405 27 24 25 26
C -2.992481 2.999502 -2.999502 28 29 30 31
C -2.999502 2.456959 2.999502 29 28 30 31
C -2.992600 0.936036 -0.463428 30 28 29 31
C -0.416275 -2.973520 -2.951700 31 28 29 30
C -2.994318 -2.993777 2.999502 32 33 34 35
C -2.999502 -1.090989 2.999502 33 32 34 35
C 1.693381 -2.512098 -2.999502 34 32 33 35
C 2.793308 -0.258415 2.999502 35 32 33 34
C 2.946379 -2.885996 -2.999502 36 37 38 39
C -2.999502 -0.469704 -2.999502 37 36 38 39
C -2.990986 2.999502 2.999502 38 36 37 39
C 2.999502 -2.530820 -2.734064 39 36 37 38
C -2.999502 2.999502 -2.999502 40 41 42 43
C -2.995853 2.170521 -2.999502 41 40 42 43
C -2.999502 -2.560403 -2.968439 42 40 41 43
C -2.999502 -2.122875 2.837047 43 40 41 42
C -2.205945 -2.998262 1.435703 44 45 46 47
C -2.999502 -2.999502 2.998877 45 44 46 47
C -2.191302 -2.999502 -2.990147 46 44 45 47
C 2.979893 2.977333 -1.228697 47 44 45 46
C -2.999502 -2.303038 2.998477 48 49 50 51
C -2.999502 2.976508 -2.996711 49 48 50 51
C -2.766129 -2.999502 -2.918875 50 48 49 51
C -2.999502 2.994804 -1.196284 51 48 49 50
C -2.999502 2.693184 2.999502 52 53 54 55
C -2.999502 2.999502 2.793206 53 52 54 55
C -2.015986 -2.937204 -2.999502 54 52 53 55
C 2.990605 2.940420 -1.563196 55 52 53 54
C -2.232360 2.999502 2.999502 56 57 58 59
C 2.999502 2.999502 0.638642 57 56 58 59
C -2.161650 -1.995733 -2.892474 58 56 57 59
C -0.486614 2.999502 2.999502 59 56 57 58
