60
Generated fullerene structure
C -0.651774 -2.999502 -2.494245 0 1 2 3
C -0.961001 -1.162065 2.999502 1 0 2 3
C 2.660594 1.789837 2.999502 2 0 1 3
C -2.521560 -2.999502 -2.999502 3 0 1 2
C 2.999502 -2.983071 -0.276376 4 5 6 7
C 2.868619 -2.679550 -2.999502 5 4 6 7
C 2.713455 2.876895 -2.991710 6 4 5 7
C 2.999502 1.125771 2.474753 7 4 5 6
C -2.994674 2.969326 -0.719218 8 9 10 11
C 0.746939 -0.833295 2.999465 9 8 10 11
C 0.813283 2.999502 2.921532 10 8 9 11
C 2.999502 -1.121710 2.999502 11 8 9 10
C -2.999502 2.999502 2.999502 12 13 14 15
C -2.485602 -2.999502 0.890190 13 12 14 15
C -2.944324 -2.999502 -2.909620 14 12 13 15
C 2.999502 -2.757955 2.999502 15 12 13 14
C 2.999502 -2.977306 2.986847 16 17 18 19
C 2.297771 2.999502 -2.999502 17 16 18 19
C -2.999502 -2.218019 -2.999502 18 16 17 19
C 2.999502 2.959050 2.980860 19 16 17 18
C -2.257639 2.975534 1.117400 20 21 22 23
C -1.673594 1.759591 2.999502 21 20 22 23
C 1.386377 2.999502 -2.999294 22 20 21 23
C -0.327712 2.175813 2.999502 23 20 21 22
C -2.999502 -2.995003 0.064120 24 25 26 27
C -2.701452 2.999502 2.999502 25 24 26 27
C 2.937978 2.999010 2.999502 26 24 25 27
C 1.547267 2.997838 2.999502 27 24 25 26
C -2.994450 -2.999502 -2.999502 28 29 30 31
C -2.999502 -1.176669 -2.999502 29 28 30 31
C -2.636266 -1.383238 -2.999502 30 28 29 31
C 1.554474 -2.999502 2.999502 31 28 29 30
C -2.999502 -2.795875 2.999502 32 33 34 35
C 2.991698 2.517913 -2.999502 33 32 34 35
C -2.844800 -2.583118 -1.312669 34 32 33 35
C 2.999502 -1.316615 2.999502 35 32 33 34
C 2.952260 -0.846560 2.999502 36 37 38 39
C -2.558940 -0.416034 -0.054008 37 36 38 39
C -2.999502 -2.976519 2.999502 38 36 37 39
C 2.999502 2.999502 2.999502 39 36 37 38
C -2.998554 -2.999502 -2.999502 40 41 42 43
C 2.999502 2.348173 -2.999502 41 40 42 43
C 0.133724 -2.996188 2.999502 42 40 41 43
C 1.158314 2.982194 0.651265 43 40 41 42
C -2.989790 2.140552 -2.999502 44 45 46 47
C 2.352369 -1.139552 0.897901 45 44 46 47
C -2.998559 -2.999502 -1.633868 46 44 45 47
C -2.992939 2.999502 -1.353644 47 44 45 46
C -2.999502 1.919529 2.999502 48 49 50 51
C 2.999502 1.350453 -2.999502 49 48 50 51
C -2.999502 2.990933 1.187493 50 48 49 51
C -2.999502 2.996199 1.260319 51 48 49 50
C -1.391780 2.897218 2.999502 52 53 54 55
C -2.961068 2.225725 2.999502 53 52 54 55
C 2.902813 -2.876088 2.999502 54 52 53 55
C -2.952244 2.981382 2.839832 55 52 53 54
C -1.505795 -2.966757 2.526319 56 57 58 59
C -1.628603 -2.999502 2.516398 57 56 58 59
C -2.986533 2.713997 -2.999502 58 56 57 59
C -1.530401 2.718435 2.999502 59 56 57 58
