60
Generated fullerene structure
C -2.999502 2.967161 2.999502 0 1 2 3
C -2.999502 2.999502 1.265353 1 0 2 3
C 2.957760 2.997381 2.906849 2 0 1 3
C 1.330575 2.509256 -2.999502 3 0 1 2
C 1.667184 2.805285 -2.999502 4 5 6 7
C -1.583180 2.999502 -2.997739 5 4 6 7
C 2.999502 2.999409 2.999502 6 4 5 7
C -2.999502 0.496539 -2.976955 7 4 5 6
C 0.927261 2.999107 1.020073 8 9 10 11
C -2.903218 2.999502 -2.711745 9 8 10 11
C -2.998117 -2.850239 0.425505 10 8 9 11
C -2.999502 -1.089994 2.293449 11 8 9 10
C -2.999502 -1.453858 1.852060 12 13 14 15
C -2.995829 -2.395622 -2.999502 13 12 14 15
C -2.999502 2.999502 -2.999502 14 12 13 15
C -2.999502 -2.999502 -2.999502 15 12 13 14
C 2.999502 -2.999502 1.980339 16 17 18 19
C -2.939835 1.235526 2.999502 17 16 18 19
C -2.999502 -2.999502 2.999502 18 16 17 19
C 0.998636 -1.847939 0.565126 19 16 17 18
C 2.460001 -0.475022 2.999502 20 21 22 23
C -2.999502 -2.999502 2.955459 21 20 22 23
C -2.999502 2.999502 -2.999502 22 20 21 23
C -0.326106 2.999502 -2.053441 23 20 21 22
C 2.831705 -2.999502 1.543725 24 25 26 27
C -2.985512 -2.999502 1.574348 25 24 26 27
C 2.999502 -2.999502 2.995611 26 24 25 27
C 2.995169 -1.869709 2.619913 27 24 25 26
C -2.999502 2.999502 2.999502 28 29 30 31
C 2.584166 2.999502 2.999502 29 28 30 31
C -2.999502 2.999502 2.978281 30 28 29 31
C 2.882485 0.470545 1.683371 31 28 29 30
C -2.999502 0.010332 1.719315 32 33 34 35
C 2.997263 2.978070 0.264012 33 32 34 35
C 0.636711 1.306781 -2.991306 34 32 33 35
C 2.997945 -1.774624 -2.999502 35 32 33 34
C -2.994555 -2.958461 -0.454413 36 37 38 39
C -2.999502 -2.775372 -2.999502 37 36 38 39
C 2.593472 2.999502 -2.999502 38 36 37 39
C -2.999502 2.999502 2.999502 39 36 37 38
C -2.010842 -2.999502 2.768718 40 41 42 43
C -2.986269 -2.999502 0.293472 41 40 42 43
C -2.784262 2.823504 -2.992661 42 40 41 43
C 0.407193 -2.212458 2.999502 43 40 41 42
C 2.652293 -2.999502 2.001130 44 45 46 47
C -2.993145 2.899618 2.361264 45 44 46 47
C -2.476133 1.764916 1.845137 46 44 45 47
C 2.993785 2.999502 -2.999502 47 44 45 46
C 2.116406 -1.019200 -0.701076 48 49 50 51
C 2.999502 2.999502 -2.999502 49 48 50 51
C 2.605407 2.515183 2.999502 50 48 49 51
C -2.999502 2.999502 2.999502 51 48 49 50
C -2.999502 -2.991822 -0.464792 52 53 54 55
C -2.996663 2.999502 -2.999502 53 52 54 55
C -0.166701 0.651399 -2.999502 54 52 53 55
C 2.999502 2.999502 2.999502 55 52 53 54
C -2.999502 2.998872 2.975905 56 57 58 59
C -2.999502 -2.015604 -1.404133 57 56 58 59
C 2.968640 2.990178 -2.881526 58 56 57 59
C -2.999502 2.999502 2.999502 59 56 57 58
