60
Generated fullerene structure
C 2.731272 -2.999502 2.870959 0 1 2 3
C 2.969056 -0.203874 2.999502 1 0 2 3
C 2.999502 2.999502 0.476842 2 0 1 3
C -2.999502 2.999502 -2.156291 3 0 1 2
C -2.999502 -0.289042 2.789738 4 5 6 7
C -2.878686 2.581155 2.999502 5 4 6 7
C 2.235972 -2.999502 -2.854449 6 4 5 7
C 2.984279 2.999502 2.999502 7 4 5 6
C 2.999502 2.999502 -2.993915 8 9 10 11
C 2.999502 2.997591 2.999502 9 8 10 11
C -2.999502 2.987204 -2.999502 10 8 9 11
C -2.999502 1.197084 2.992935 11 8 9 10
C -2.999502 -2.999502 2.999502 12 13 14 15
C -0.523217 0.189070 -2.999502 13 12 14 15
C 2.999502 2.999502 2.999502 14 12 13 15
C -2.984771 -0.180300 0.610652 15 12 13 14
C -2.999502 -1.978006 2.999502 16 17 18 19
C -2.998693 2.692581 -1.546495 17 16 18 19
C 2.999502 1.663561 2.999502 18 16 17 19
C 2.980169 2.582970 2.911980 19 16 17 18
C -2.999502 2.849399 -2.987670 20 21 22 23
C 1.744714 -2.999502 2.999502 21 20 22 23
C -2.999502 -2.999502 2.999502 22 20 21 23
C -2.989774 -2.931720 2.999502 23 20 21 22
C -2.999502 2.999502 -1.324106 24 25 26 27
C -2.997290 1.412970 2.952801 25 24 26 27
C 2.999502 0.456952 2.999502 26 24 25 27
C 2.999502 -1.691889 2.999502 27 24 25 26
C -2.999502 -2.430515 2.997217 28 29 30 31
C -2.999502 -2.999502 2.978072 29 28 30 31
C 2.994551 2.984596 -0.369121 30 28 29 31
C 0.052532 2.999502 2.928410 31 28 29 30
C -2.941475 2.999502 1.247946 32 33 34 35
C -2.999502 -1.335701 -0.984873 33 32 34 35
C -2.991976 -2.999502 -2.987046 34 32 33 35
C 1.577856 -2.990115 2.999502 35 32 33 34
C -2.999502 2.983359 -0.058157 36 37 38 39
C -2.997116 2.999502 1.745203 37 36 38 39
C -0.847560 -1.344276 2.999502 38 36 37 39
C -2.999502 2.969007 2.982285 39 36 37 38
C -2.999502 2.999502 -2.999502 40 41 42 43
C 0.522860 2.420031 0.106652 41 40 42 43
C -1.051768 2.999502 -2.999179 42 40 41 43
C -2.999502 2.431582 2.999502 43 40 41 42
C -2.999502 2.999502 2.936196 44 45 46 47
C -2.999502 -2.229409 2.974601 45 44 46 47
C 2.995669 2.999502 -2.968103 46 44 45 47
C -2.999502 2.766020 -2.985344 47 44 45 46
C 2.999502 -1.597442 2.999502 48 49 50 51
C -2.918693 -2.987614 -2.736656 49 48 50 51
C -0.880808 -2.999502 -2.979838 50 48 49 51
C -2.889819 -2.696250 -2.987538 51 48 49 50
C -0.639791 1.613562 -2.977294 52 53 54 55
C -2.964033 -2.936563 0.988463 53 52 54 55
C -2.999502 -2.999502 2.997498 54 52 53 55
C 2.999502 1.358435 -0.154102 55 52 53 54
C -1.212353 2.496215 2.999502 56 57 58 59
C 1.319594 -1.143922 -2.025231 57 56 58 59
C -2.231466 2.735717 -2.999502 58 56 57 59
C 2.999502 -2.999502 0.467573 59 56 57 58
