60
Generated fullerene structure
C 1.322995 1.384851 -2.426600 0 1 2 3
C -2.999502 2.879382 2.999502 1 0 2 3
C -2.797127 2.999502 2.858883 2 0 1 3
C -2.999502 2.999502 -2.622181 3 0 1 2
C 2.151438 -2.419664 -2.999502 4 5 6 7
C -2.772762 2.999502 1.810334 5 4 6 7
C -2.999502 -2.999502 0.830515 6 4 5 7
C 2.059734 -2.999502 2.999502 7 4 5 6
C 2.999502 -2.999502 -0.106359 8 9 10 11
C 2.999502 2.054525 0.297911 9 8 10 11
C -2.993216 -1.826553 -2.999502 10 8 9 11
C 2.979896 2.619647 2.999502 11 8 9 10
C -2.999502 2.990179 2.999502 12 13 14 15
C 2.999479 -1.928586 -2.131993 13 12 14 15
C 2.999502 2.999502 2.538657 14 12 13 15
C 2.999502 -1.045705 2.999502 15 12 13 14
C -2.991065 -2.869678 -2.999502 16 17 18 19
C 2.999502 2.999502 -2.999502 17 16 18 19
C -2.999502 1.530141 0.548479 18 16 17 19
C 2.405610 -2.999502 2.999502 19 16 17 18
C 0.947758 -2.471457 -2.996447 20 21 22 23
C -0.947552 2.999502 -2.999502 21 20 22 23
C -2.999502 -2.985322 2.999502 22 20 21 23
C 2.999502 2.999502 2.999502 23 20 21 22
C 2.999502 -2.999502 -2.999502 24 25 26 27
C 2.999502 2.992496 0.578203 25 24 26 27
C -2.302082 -2.999502 -2.541571 26 24 25 27
C 2.125948 -2.988102 2.999502 27 24 25 26
C 2.999502 -2.999502 2.999502 28 29 30 31
C 1.377070 2.891493 -2.999502 29 28 30 31
C 2.999502 -2.999502 -2.999502 30 28 29 31
C -2.999502 1.816247 2.951419 31 28 29 30
C -2.999502 -1.985681 -0.712453 32 33 34 35
C 2.979203 -1.720218 -2.715743 33 32 34 35
C 1.048995 1.704924 2.762591 34 32 33 35
C -2.999502 2.999502 2.999502 35 32 33 34
C 2.999502 -2.801493 2.375577 36 37 38 39
C 2.999502 2.082583 -2.999502 37 36 38 39
C -2.999502 -2.999502 2.999502 38 36 37 39
C -2.997337 2.999502 -2.999502 39 36 37 38
C 1.048682 -2.999502 -2.987496 40 41 42 43
C 2.372648 2.999502 2.010190 41 40 42 43
C 2.999502 1.793070 0.894762 42 40 41 43
C -2.999502 2.999502 2.157910 43 40 41 42
C 1.108917 2.850765 -2.999502 44 45 46 47
C -2.999502 -2.401237 2.999502 45 44 46 47
C -2.999502 2.999502 -2.940217 46 44 45 47
C 1.926720 2.989941 2.999502 47 44 45 46
C 2.904185 -2.999502 -1.950511 48 49 50 51
C 2.823229 -2.950146 -2.976225 49 48 50 51
C -2.999502 2.969118 2.878537 50 48 49 51
C -2.998456 2.496993 2.999502 51 48 49 50
C 0.156865 2.999502 2.999502 52 53 54 55
C -2.999502 -2.050729 2.727257 53 52 54 55
C -1.538393 2.936643 -2.759461 54 52 53 55
C -2.999502 2.999502 2.692923 55 52 53 54
C 2.994709 -2.991467 1.798113 56 57 58 59
C -0.808489 2.999502 -2.999502 57 56 58 59
C -2.999502 2.445878 2.999502 58 56 57 59
C -2.999502 2.016412 -2.999502 59 56 57 58
