60
Generated fullerene structure
C 2.999502 2.159198 0.907992 0 1 2 3
C -2.999502 2.896737 -2.999502 1 0 2 3
C -2.937067 -2.760194 2.874646 2 0 1 3
C 2.127520 -2.999502 2.941384 3 0 1 2
C 2.999502 2.999502 -2.994299 4 5 6 7
C 0.143965 -2.999502 -0.030496 5 4 6 7
C 2.999502 0.039362 0.609817 6 4 5 7
C -2.999502 2.999502 2.999502 7 4 5 6
C 1.229913 1.538680 -2.999502 8 9 10 11
C -2.147559 2.999502 2.999502 9 8 10 11
C 1.523266 1.435127 2.925930 10 8 9 11
C -2.850512 -2.999502 2.390533 11 8 9 10
C 2.808933 2.999502 -2.718518 12 13 14 15
C -2.999502 2.752981 2.999502 13 12 14 15
C 2.999502 -2.665154 2.457324 14 12 13 15
C 2.785332 2.879003 1.831803 15 12 13 14
C 0.780691 2.427369 -2.999502 16 17 18 19
C -2.810187 -2.999502 -2.999502 17 16 18 19
C -2.999502 -2.999502 2.999502 18 16 17 19
C 2.988341 -2.999427 -2.370499 19 16 17 18
C -0.412536 -2.896916 2.999502 20 21 22 23
C 2.999502 -2.954563 -2.999502 21 20 22 23
C -2.982301 2.386533 1.840533 22 20 21 23
C 2.282345 2.998632 -2.999502 23 20 21 22
C -2.999502 2.875658 -1.262707 24 25 26 27
C 2.999502 1.172067 2.992460 25 24 26 27
C -2.999502 2.999267 2.999502 26 24 25 27
C 2.999502 -2.999502 2.999502 27 24 25 26
C -2.999502 -0.477432 2.994466 28 29 30 31
C 2.042350 -2.333476 2.995178 29 28 30 31
C -2.489048 -1.039864 2.999502 30 28 29 31
C -2.996213 -2.097199 2.999502 31 28 29 30
C 2.999502 0.766904 -2.992567 32 33 34 35
C -1.998025 2.999502 -2.999502 33 32 34 35
C 2.947689 -2.999502 2.973058 34 32 33 35
C -1.900076 2.997414 -0.763854 35 32 33 34
C 2.999502 0.756285 2.999502 36 37 38 39
C 2.999502 -2.994556 -1.755394 37 36 38 39
C -2.989381 -2.999502 2.985514 38 36 37 39
C -2.999502 2.566938 -2.954684 39 36 37 38
C -2.999502 -2.994680 2.999094 40 41 42 43
C -1.309334 2.999502 -2.797570 41 40 42 43
C -2.999502 -2.922825 -0.376165 42 40 41 43
C -2.999502 -2.358261 -2.733103 43 40 41 42
C -0.901932 2.999502 2.984418 44 45 46 47
C -1.788518 -2.531693 2.341847 45 44 46 47
C -2.999502 0.748233 -2.998996 46 44 45 47
C 2.982829 -2.999502 -2.553567 47 44 45 46
C -1.912050 2.999502 0.622732 48 49 50 51
C -2.049202 -2.999502 -2.844771 49 48 50 51
C -2.999502 -2.999502 -1.217413 50 48 49 51
C -2.999502 -0.782241 2.980287 51 48 49 50
C -2.999502 -2.996713 2.928489 52 53 54 55
C 2.999502 -2.347513 2.999502 53 52 54 55
C -2.999502 -2.682910 -2.124759 54 52 53 55
C 2.772047 -2.613505 2.999502 55 52 53 54
C -1.724070 -0.986255 2.998924 56 57 58 59
C 2.816674 -2.999502 2.210912 57 56 58 59
C -2.999502 -2.999502 2.999502 58 56 57 59
C -2.995691 -2.922626 2.220362 59 56 57 58
