60
Generated fullerene structure
C -2.999502 -2.999502 -2.971883 0 1 2 3
C 2.912125 1.561502 0.910843 1 0 2 3
C 2.999502 -2.616256 -2.999502 2 0 1 3
C -2.995320 2.999502 -2.904131 3 0 1 2
C -1.995925 -2.999502 0.189593 4 5 6 7
C 2.999502 -2.923122 -2.805541 5 4 6 7
C 2.999502 0.114965 2.999502 6 4 5 7
C -2.998011 -2.959009 2.999502 7 4 5 6
C -2.920260 2.790111 -2.999502 8 9 10 11
C 2.999502 2.999502 -2.999502 9 8 10 11
C -2.999502 2.167086 1.023491 10 8 9 11
C 2.999502 2.999502 2.999502 11 8 9 10
C 1.907351 2.997874 2.880761 12 13 14 15
C -2.958587 2.999502 2.999502 13 12 14 15
C -2.999502 2.857436 -2.123175 14 12 13 15
C -0.969625 -0.495362 1.455798 15 12 13 14
C -2.999502 2.999502 -0.676313 16 17 18 19
C 1.523104 -0.863525 2.999502 17 16 18 19
C 2.999502 -2.457844 -2.999502 18 16 17 19
C 2.999502 -2.999502 2.572760 19 16 17 18
C 2.986321 2.982913 -1.367846 20 21 22 23
C -2.999502 -2.700433 2.999502 21 20 22 23
C -2.912657 2.999502 2.999502 22 20 21 23
C 2.646440 -1.806368 -2.999502 23 20 21 22
C -2.933630 -2.698251 2.999502 24 25 26 27
C 2.999502 2.505402 -2.999502 25 24 26 27
C -2.961512 -2.999502 2.983124 26 24 25 27
C 2.997157 2.999502 -2.999502 27 24 25 26
C 2.999502 0.748992 0.802117 28 29 30 31
C 2.017354 2.999502 -2.999502 29 28 30 31
C -2.999502 2.115249 2.999502 30 28 29 31
C 2.994879 -2.999502 -2.999502 31 28 29 30
C 2.999502 2.999502 1.174556 32 33 34 35
C -2.999502 2.999502 0.918435 33 32 34 35
C -2.999502 2.999502 -1.891737 34 32 33 35
C -2.999502 -2.999502 -2.997416 35 32 33 34
C 2.999502 -2.999502 2.999502 36 37 38 39
C -2.999502 2.999502 2.578435 37 36 38 39
C -1.596107 2.089889 2.999502 38 36 37 39
C -0.876487 -2.999502 2.999502 39 36 37 38
C 2.999502 2.999502 2.987493 40 41 42 43
C -2.999502 2.999502 2.999502 41 40 42 43
C -2.691915 -2.999502 -2.999502 42 40 41 43
C 2.502909 -2.878449 -2.952138 43 40 41 42
C 2.143551 0.452824 2.985878 44 45 46 47
C -1.899935 2.999502 1.681791 45 44 46 47
C -2.014228 2.921052 1.011940 46 44 45 47
C -2.940616 2.517900 2.999502 47 44 45 46
C 2.999502 2.999502 -0.722134 48 49 50 51
C -2.501957 2.999502 2.987840 49 48 50 51
C 2.974530 -2.999502 2.999502 50 48 49 51
C 2.970958 -0.523297 2.192248 51 48 49 50
C 2.999502 2.334663 2.999502 52 53 54 55
C -2.999502 -0.729236 2.999502 53 52 54 55
C 0.345828 -2.996634 2.999502 54 52 53 55
C -2.999502 2.336533 0.899144 55 52 53 54
C -1.887293 2.999502 -1.876375 56 57 58 59
C -2.993396 -1.107559 2.647954 57 56 58 59
C 2.999502 -2.999502 2.790727 58 56 57 59
C -0.679074 -2.999502 2.999502 59 56 57 58
