60
Generated fullerene structure
C 2.999502 2.999502 2.543083 0 1 2 3
C -2.979093 -2.999502 2.978667 1 0 2 3
C 2.998015 -2.999502 -2.953294 2 0 1 3
C -2.999502 2.999502 -1.606379 3 0 1 2
C 2.999502 0.933740 -2.999502 4 5 6 7
C -2.999004 2.383687 2.999353 5 4 6 7
C -2.264195 2.999502 -2.958770 6 4 5 7
C -2.999502 1.054663 -1.511897 7 4 5 6
C -2.542429 -2.999502 -1.412144 8 9 10 11
C -2.999502 -2.214838 2.999502 9 8 10 11
C -2.612478 -2.999502 2.963449 10 8 9 11
C 0.003910 2.999502 -2.898190 11 8 9 10
C -0.042809 -1.975607 2.999502 12 13 14 15
C 2.994973 -2.999502 2.473686 13 12 14 15
C -2.999502 -2.999502 2.999502 14 12 13 15
C -2.999502 2.999502 1.009550 15 12 13 14
C -2.998829 2.999502 -2.411751 16 17 18 19
C -0.717150 -2.999502 2.899875 17 16 18 19
C -1.776009 -0.358180 1.536672 18 16 17 19
C 2.685191 -2.999502 2.999502 19 16 17 18
C 2.999502 1.742185 -1.887467 20 21 22 23
C -0.504716 -2.374322 1.311045 21 20 22 23
C -2.999502 -2.999502 -2.949196 22 20 21 23
C -2.982295 2.999502 2.920936 23 20 21 22
C 2.999502 -2.999502 -2.999502 24 25 26 27
C 2.837988 -2.943960 2.995888 25 24 26 27
C -2.999502 -2.999502 1.372064 26 24 25 27
C 1.886033 1.699617 -2.999502 27 24 25 26
C 2.725764 -2.961624 -2.999502 28 29 30 31
C -2.999502 0.979632 2.769813 29 28 30 31
C 2.999502 2.999502 -2.999502 30 28 29 31
C -2.999502 2.983499 2.477653 31 28 29 30
C -2.999502 -0.842592 2.999502 32 33 34 35
C 2.623681 2.546805 2.999502 33 32 34 35
C 2.991378 -2.997102 2.999502 34 32 33 35
C -2.999502 -2.997233 -2.974448 35 32 33 34
C 2.999502 -2.999502 -2.857539 36 37 38 39
C 2.999502 -0.955314 -0.729103 37 36 38 39
C 0.477670 -2.999502 -1.044989 38 36 37 39
C -2.999502 1.654473 2.999502 39 36 37 38
C -2.999502 -2.988004 2.998950 40 41 42 43
C 2.999502 -2.984769 2.999502 41 40 42 43
C -2.989400 0.460849 -2.992619 42 40 41 43
C 1.445964 -2.832387 2.995458 43 40 41 42
C -0.535990 -1.573402 0.799387 44 45 46 47
C 2.992943 2.848246 -2.999502 45 44 46 47
C 2.999502 -0.825631 -2.417401 46 44 45 47
C -2.720615 2.683985 -2.710013 47 44 45 46
C 1.450738 2.999502 2.999502 48 49 50 51
C 2.999034 -2.999502 -2.999502 49 48 50 51
C 1.432248 2.980358 -1.856144 50 48 49 51
C -2.995023 -0.111375 2.993217 51 48 49 50
C 2.999502 2.221487 2.999502 52 53 54 55
C 2.999502 2.177217 2.752262 53 52 54 55
C -2.999502 -1.818156 -2.999502 54 52 53 55
C -1.964223 2.999502 -2.999502 55 52 53 54
C 2.944931 -2.983128 2.200137 56 57 58 59
C -2.298766 2.986727 -2.999502 57 56 58 59
C -2.999502 -2.940744 -1.287208 58 56 57 59
C 2.195758 -2.767658 2.999502 59 56 57 58
