60
Generated fullerene structure
C -1.864008 -2.908644 -2.999502 0 1 2 3
C -2.999502 1.308623 -2.999502 1 0 2 3
C 2.541853 2.999502 2.999502 2 0 1 3
C 2.999502 -2.317061 -2.999502 3 0 1 2
C 2.994072 2.995762 -2.984685 4 5 6 7
C -2.999502 2.999502 -2.999502 5 4 6 7
C -2.259365 -1.684010 2.999502 6 4 5 7
C 2.999502 -2.999502 -2.727004 7 4 5 6
C -0.256869 -2.786940 2.584436 8 9 10 11
C 2.997048 -2.678477 -2.999502 9 8 10 11
C 2.999502 2.105145 -1.812548 10 8 9 11
C -2.428805 0.759974 2.999502 11 8 9 10
C -2.951002 -2.999502 -2.989869 12 13 14 15
C -2.982874 -2.999502 -1.857990 13 12 14 15
C 2.999502 2.999502 2.066529 14 12 13 15
C -2.999502 -2.998828 2.999502 15 12 13 14
C 2.799431 2.682793 2.999502 16 17 18 19
C 2.999502 -2.937073 2.587352 17 16 18 19
C 2.863523 -2.999502 -1.300155 18 16 17 19
C -2.972549 2.999502 -2.811565 19 16 17 18
C -2.997243 2.999502 2.421311 20 21 22 23
C -2.879118 -2.999502 -1.287529 21 20 22 23
C -2.999502 2.999502 1.541896 22 20 21 23
C 2.999502 -2.565969 -1.098656 23 20 21 22
C 2.681567 -2.982181 -2.999502 24 25 26 27
C 2.999502 2.996475 -2.665781 25 24 26 27
C 2.669689 0.687583 -2.999502 26 24 25 27
C -2.999502 -2.999502 2.991785 27 24 25 26
C 1.555145 2.999502 2.999502 28 29 30 31
C -0.262625 2.999502 2.925506 29 28 30 31
C -2.999502 -2.994400 1.549190 30 28 29 31
C 2.999502 -2.999502 1.488217 31 28 29 30
C -2.999502 2.999502 2.999502 32 33 34 35
C -2.999502 -2.945601 0.849842 33 32 34 35
C -1.697885 2.995954 -2.998686 34 32 33 35
C -2.999502 0.116653 2.999160 35 32 33 34
C -0.985127 2.999502 2.994765 36 37 38 39
C -1.451452 2.999502 2.999502 37 36 38 39
C -2.999502 1.879086 -2.999502 38 36 37 39
C -2.999502 -1.906723 2.999502 39 36 37 38
C -0.419901 2.987752 2.999502 40 41 42 43
C 1.604300 2.999502 2.999502 41 40 42 43
C -2.999502 -2.730060 2.999502 42 40 41 43
C -2.999502 -2.893035 0.802723 43 40 41 42
C -1.177844 1.653451 -1.528610 44 45 46 47
C 2.999502 2.999502 -2.388291 45 44 46 47
C -2.999502 -2.985930 -2.890551 46 44 45 47
C -2.937927 2.998899 -2.999502 47 44 45 46
C -2.999502 2.606319 2.994746 48 49 50 51
C -1.903050 -1.506311 -1.581411 49 48 50 51
C -2.999502 -1.833446 -2.999502 50 48 49 51
C -2.552967 -2.999502 2.999502 51 48 49 50
C -2.732292 2.999502 -0.230482 52 53 54 55
C -2.943405 2.999502 2.954339 53 52 54 55
C 2.999502 -2.999502 -2.687454 54 52 53 55
C 2.502016 -2.166658 -2.816662 55 52 53 54
C 2.414987 -1.642293 -1.561466 56 57 58 59
C -0.466630 2.999502 1.978674 57 56 58 59
C 2.987543 2.999502 2.994442 58 56 57 59
C 2.986441 2.897116 -2.504462 59 56 57 58
