Layer 1 (O,Ti) extracted from PROJECT-1.cif; lattice+fractional coords unchanged.
1.0
  21.2164749999999991    0.0000000000000000    0.0000000000000013
   8.8961837150923380   22.5392746906671952    0.0000000000000015
   0.0000000000000000    0.0000000000000000   30.6755299999999984
Ti O
68 136
direct
   0.7615686699999999    0.0184338500000000    0.6987669700000000 Ti
   0.5866924400000000    0.1368569700000000    0.6988165800000000 Ti
   0.2910275100000000    0.6638343000000000    0.6991273600000000 Ti
   0.3480515400000000    0.9604773500000000    0.6988765600000000 Ti
   0.9968305200000001    0.1942719000000000    0.6984338600000000 Ti
   0.4686860000000000    0.5475439000000000    0.6987791700000000 Ti
   0.0557352800000000    0.4893973600000000    0.6979812600000000 Ti
   0.9377572800000000    0.8996104900000000    0.6971919200000000 Ti
   0.1722310700000000    0.0775285100000000    0.6987040600000000 Ti
   0.4091311700000000    0.2556429800000000    0.6974599900000000 Ti
   0.2308833100000000    0.3732016300000000    0.6981633699999999 Ti
   0.7026986600000000    0.7234645200000001    0.6967333000000000 Ti
   0.1136337600000000    0.7818242300000000    0.6957975100000000 Ti
   0.8214773800000000    0.3125600900000000    0.6982530800000000 Ti
   0.6450710900000000    0.4297186100000000    0.6983313799999999 Ti
   0.8795142800000000    0.6066894600000000    0.6982064300000000 Ti
   0.5235575200000000    0.8427766200000000    0.6968426900000000 Ti
   0.7054219300000000    0.1261617600000000    0.7624981300000000 Ti
   0.3495980800000000    0.3617528600000000    0.7628649500000000 Ti
   0.1739608300000000    0.4794108400000000    0.7650205800000000 Ti
   0.4687596100000000    0.9506245700000000    0.7619144900000000 Ti
   0.2918220000000000    0.0688451900000000    0.7625266300000000 Ti
   0.5275460000000000    0.2434564900000000    0.7622164400000000 Ti
   0.8812780400000000    0.0068896500000000    0.7602237300000000 Ti
   0.1157102000000000    0.1856563500000000    0.7622839000000000 Ti
   0.5876807300000000    0.5367540000000000    0.7624112800000000 Ti
   0.9402146200000000    0.3022422300000000    0.7623584600000000 Ti
   0.6441483099999999    0.8326285500000000    0.7606863100000000 Ti
   0.9978424100000000    0.5963959599999999    0.7625273100000000 Ti
   0.2321532400000000    0.7727648300000000    0.7615635600000000 Ti
   0.0573051300000000    0.8899221300000000    0.7600781400000000 Ti
   0.8206980900000000    0.7147787000000000    0.7604519100000000 Ti
   0.4099546100000000    0.6552354600000000    0.7623942300000000 Ti
   0.7640708100000000    0.4192821300000000    0.7624591800000000 Ti
   0.7002185700000000    0.9196741600000000    0.7592492300000000 Ti
   0.5244290100000000    0.0378639400000000    0.7582228300000000 Ti
   0.2285016900000000    0.5673029700000000    0.7601828600000000 Ti
   0.5821868800000000    0.3316111000000000    0.7584688600000000 Ti
   0.2863320200000000    0.8607799000000000    0.7583244200000000 Ti
   0.8761254800000000    0.8018714900000000    0.7593023800000001 Ti
   0.1105074400000000    0.9783479500000000    0.7594950499999999 Ti
   0.3471433100000000    0.1565213100000000    0.7577888400000000 Ti
   0.8176137999999999    0.5078853700000000    0.7582252300000000 Ti
   0.9346636800000000    0.0951986800000000    0.7594223000000000 Ti
   0.1701047500000000    0.2736094200000000    0.7580173600000000 Ti
   0.4054001200000000    0.4492375300000000    0.7583264500000000 Ti
   0.6418457500000000    0.6248469800000001    0.7581337500000001 Ti
   0.9936558599999999    0.3909228700000000    0.7582110800000000 Ti
   0.4640914900000000    0.7435169100000000    0.7590629500000000 Ti
   0.0519156000000000    0.6844222700000000    0.7582821800000000 Ti
   0.7594776800000000    0.2140059500000000    0.7584199000000000 Ti
   0.5837456300000000    0.7333183800000000    0.8230082900000000 Ti
   0.6429666600000000    0.0286265800000000    0.8236982700000000 Ti
   0.2304519000000000    0.9696751300000001    0.8232056300000000 Ti
   0.4657184500000000    0.1459233200000000    0.8239438400000000 Ti
   0.8197152700000000    0.9103534900000000    0.8234339800000000 Ti
   0.0544522700000000    0.0867117400000000    0.8233788200000000 Ti
   0.2886661100000000    0.2628811500000000    0.8237936500000000 Ti
   0.7609289500000000    0.6167835900000000    0.8232514700000000 Ti
   0.1123164300000000    0.3800347200000000    0.8241982300000000 Ti
   0.9366957100000000    0.4988035100000000    0.8238893600000000 Ti
   0.4062461800000000    0.8523875800000000    0.8226658300000000 Ti
  -0.0042969600000000    0.7933719000000000    0.8232117400000000 Ti
   0.7021022900000000    0.3212628900000000    0.8236693200000000 Ti
   0.5247595100000000    0.4393985500000000    0.8237047400000000 Ti
   0.8783907900000000    0.2036000400000000    0.8234233300000000 Ti
   0.3477435800000000    0.5566618400000000    0.8235300100000000 Ti
   0.1710785100000000    0.6758133800000000    0.8239012200000000 Ti
   0.5624517300000000    0.4968703600000000    0.6851908400000000 O
   0.0317198400000000    0.8503024200000000    0.6881489200000001 O
   0.7383642900000000    0.3800300000000000    0.6850933200000000 O
   0.3238355800000000    0.3236368800000000    0.6854952800000000 O
   0.7979848700000000    0.6762138700000000    0.6883946399999999 O
   0.1484752800000000    0.4398827700000000    0.6826907600000000 O
   0.3865470800000000    0.6135083600000000    0.6853455400000000 O
   0.6208423400000000    0.7932407200000000    0.6855065000000000 O
   0.6795805400000000    0.0867678100000000    0.6854379600000000 O
   0.4408977700000000    0.9103447900000000    0.6856670700000000 O
   0.2656316700000000    0.0269820700000000    0.6851678000000000 O
   0.5037609100000000    0.2034466900000000    0.6886267300000000 O
   0.0900768400000000    0.1457463200000000    0.6854410399999999 O
   0.9730047300000000    0.5567284100000000    0.6854076600000000 O
   0.2109815800000000    0.7301523000000000    0.6877322800000000 O
   0.9141079200000000    0.2631013600000000    0.6852577500000000 O
   0.8552161000000000    0.9700949000000000    0.6905744200000000 O
   0.6131744700000000    0.3795760800000000    0.7200030100000000 O
   0.7890551500000000    0.2627489100000000    0.7200542900000000 O
   0.4373230800000000    0.4966009000000000    0.7201607900000000 O
   0.9061943900000000    0.8499673900000000    0.7199755600000000 O
   0.7302886500000000    0.9671057100000000    0.7199525800000000 O
   0.0821822400000000    0.7330241000000000    0.7198927200000000 O
   0.8476699200000000    0.5564961800000000    0.7201240200000000 O
   0.6717533100000000    0.6733052100000000    0.7198917300000000 O
   0.2582624600000000    0.6133076100000000    0.7200020400000000 O
   0.5547047600000000    0.0862768000000000    0.7201255300000000 O
   0.3752328300000000    0.2063236800000000    0.7197582700000000 O
   0.9651368400000000    0.1438364100000000    0.7199837700000000 O
   0.1991207400000000    0.3229465200000000    0.7200707600000000 O
   0.0234803800000000    0.4395597200000000    0.7200145400000000 O
   0.3163377600000000    0.9098596500000000    0.7201322700000000 O
   0.1407580700000000    0.0269486400000000    0.7200425200000000 O
   0.4957898100000000    0.7902888300000001    0.7199135400000000 O
   0.2621021300000000    0.8202131700000000    0.7197057200000000 O
   0.7344874000000000    0.1735817100000000    0.7200069400000000 O
   0.1446699000000000    0.2333305400000000    0.7199715900000000 O
   0.8512754900000000    0.7631149300000000    0.7197592200000000 O
   0.4995830100000000   -0.0027024700000000    0.7198109200000000 O
   0.0860061800000000    0.9397547600000000    0.7196477500000000 O
   0.6173190600000000    0.5836576500000000    0.7199746700000000 O
   0.9688526900000000    0.3501414100000000    0.7199938500000000 O
   0.2030278400000000    0.5265435900000000    0.7224358800000000 O
   0.6757114100000000    0.8799381700000000    0.7199507900000000 O
   0.3206654400000000    0.1165650300000000    0.7198928600000000 O
   0.5548011300000000    0.2932154700000000    0.7199717400000000 O
   0.9100728400000000    0.0566542400000000    0.7197043000000000 O
   0.4379828300000000    0.7036034799999999    0.7203408400000000 O
   0.0275840600000000    0.6435454900000001    0.7199541300000000 O
   0.7930399500000000    0.4669083400000000    0.7199908699999999 O
   0.3790422500000000    0.4098994700000000    0.7200385300000000 O
   0.7842144200000000    0.0539999300000000    0.7467553900000000 O
   0.6090300700000000    0.1732292700000000    0.7465766900000000 O
   0.4298277400000000    0.2901382200000000    0.7464542000000000 O
   0.6675242400000000    0.4640424900000000    0.7467230700000000 O
   0.2533736700000000    0.4073687400000000    0.7468060100000000 O
   0.3129436200000000    0.6998904300000000    0.7467832800000000 O
   0.3713285600000000    0.9966286400000000    0.7464513300000000 O
   0.9612931900000000    0.9365207900000000    0.7443826900000000 O
   0.1952983500000000    0.1133754100000000    0.7464510200000000 O
   0.9023968500000000    0.6426661000000000    0.7462777700000000 O
   0.7232715400000000    0.7601270600000000    0.7460317100000000 O
   0.0780540300000000    0.5235864700000000    0.7466946800000001 O
   0.5474044100000000    0.8794467500000001    0.7441198500000000 O
   0.1372434000000000    0.8189907300000000    0.7438783600000000 O
   0.8436393300000000    0.3471662500000000    0.7465941200000000 O
   0.0193600200000000    0.2301470300000000    0.7464855200000000 O
   0.4914665400000000    0.5835021900000000    0.7464709200000000 O
   0.7382351800000000    0.5799371600000000    0.7758449600000000 O
   0.5030840500000000    0.4033614500000000    0.7759376600000000 O
   0.5618671200000001    0.6965494700000000    0.7756568500000000 O
   0.2660439000000000    0.2273014400000000    0.7757671500000000 O
   0.0899865300000000    0.3461041300000000    0.7756476300000000 O
   0.3832024600000000    0.8163297300000000    0.7754934800000000 O
   0.6209223200000000    0.9930900000000000    0.7758815000000000 O
   0.2072750300000000    0.9332961800000000    0.7759528200000000 O
   0.4445550800000000    0.1102384900000000    0.7757098400000000 O
   0.6795118000000000    0.2863102100000000    0.7757924500000000 O
   0.7966070900000000    0.8736285600000000    0.7760949200000000 O
   0.0313724300000000    0.0502395000000000    0.7760835500000000 O
   0.8553857800000000    0.1672254200000000    0.7759546000000000 O
   0.3248243700000000    0.5203502400000000    0.7759793699999999 O
   0.9141166200000000    0.4633128200000000    0.7758531100000000 O
   0.1485317700000000    0.6400380900000000    0.7759965800000000 O
   0.9728737200000001    0.7565791600000000    0.7759385700000000 O
   0.6132812100000000    0.5768732800000000    0.8004570900000000 O
   0.3752504700000000    0.4027465400000000    0.8004436700000001 O
   0.1990344500000000    0.5199635400000000    0.8029466000000000 O
   0.7304567800000000    0.1667170600000000    0.8005585100000000 O
   0.3167303800000000    0.1097666300000000    0.8003466700000000 O
   0.5545480600000000    0.2833032200000000    0.8002461000000000 O
   0.7890492500000000    0.4600887000000000    0.8004341900000000 O
   0.9063444600000000    0.0467627300000000    0.7999180100000000 O
   0.1404738300000000    0.2265870500000000    0.8003331000000000 O
   0.8473579900000000    0.7535058100000001    0.7999534100000000 O
   0.9648175900000000    0.3432650000000000    0.8003862300000000 O
   0.6679727800000000    0.8731127100000000    0.8000344200000000 O
   0.0235570200000000    0.6369190000000000    0.8003915100000000 O
   0.2577131100000000    0.8133932000000000    0.8000194800000000 O
   0.4957821900000000    0.9900584100000001    0.8002014800000000 O
   0.0820349500000000    0.9299371800000000    0.7998453900000000 O
   0.4338775700000000    0.6964468600000000    0.8006584000000000 O
   0.0858001600000000    0.1366318200000000    0.8002628800000000 O
   0.1445715900000000    0.4303355700000000    0.8026870100000000 O
   0.4375801900000000    0.9029012900000000    0.8002076200000000 O
   0.6723336600000001    0.0796617000000000    0.8003547800000000 O
   0.2616320700000000    0.0198981000000000    0.8002483800000000 O
   0.4963571600000000    0.1970239700000000    0.8023304200000000 O
   0.3203938100000000    0.3136548300000000    0.8023770300000000 O
   0.5547973600000000    0.4899005500000000    0.8002859300000000 O
   0.9099784600000000    0.2533527200000000    0.8002433000000000 O
   0.3790388500000000    0.6065451400000000    0.8001265500000000 O
   0.6133617900000000    0.7838471700000000    0.7998626100000000 O
   0.2029692100000000    0.7264041700000000    0.8025760300000000 O
   0.0271580900000000    0.8430893300000000    0.8000905500000000 O
   0.7344251899999999    0.3702377800000000    0.8003015300000000 O
   0.8513928800000000    0.9597431199999999    0.8001532000000000 O
   0.7925892500000000    0.6663484300000000    0.8001755900000000 O
   0.9686629500000000    0.5495194200000000    0.8026762200000001 O
   0.7263139199999999    0.9604149700000000    0.8371845400000000 O
   0.5502175300000000    0.0797593800000000    0.8373783100000000 O
   0.1367952300000000    0.0199209500000000    0.8373371100000000 O
   0.3714264600000000    0.1963860900000000    0.8372819800000000 O
   0.8438030100000000    0.5497644699999999    0.8374027100000000 O
   0.1953034700000000    0.3132176700000000    0.8374362700000000 O
   0.6677470700000000    0.6667831800000000    0.8372334200000000 O
   0.0191945500000000    0.4304444900000000    0.8374366500000000 O
   0.4884124900000000    0.7835715000000000    0.8347826000000000 O
   0.3127837300000000    0.9031170300000000    0.8372832500000000 O
   0.9024054200000000    0.8432680400000000    0.8373063100000000 O
   0.6090192200000000    0.3733053200000000    0.8373138400000000 O
   0.2539377600000000    0.6069166300000000    0.8370760699999999 O
   0.0782543700000000    0.7264568900000000    0.8374502000000000 O
   0.7851004000000000    0.2535554000000000    0.8373156500000000 O
   0.9609229400000000    0.1366884500000000    0.8373639100000000 O
   0.4301849600000000    0.4898512100000000    0.8372861100000000 O
