Original structure from PROJECT-1.cif; lattice+fractional coords unchanged.
1.0
  21.2164749999999991    0.0000000000000000    0.0000000000000013
   8.8961837150923380   22.5392746906671952    0.0000000000000015
   0.0000000000000000    0.0000000000000000   30.6755299999999984
H Pb C I N Ti O
144 24 24 72 24 68 136
direct
   0.4466671200000000    0.4759184500000000    0.2335371800000000 H
   0.7745734000000000    0.6522255500000000    0.2430921900000000 H
   0.1395154600000000    0.8328419400000000    0.2658324000000000 H
   0.4575336000000000    0.9709461000000000    0.2379220100000000 H
   0.7879369200000000    0.1522143000000000    0.2391076600000000 H
   0.1414925600000000    0.3240521500000000    0.2611490800000000 H
   0.5543849400000000    0.2778861900000000    0.2425421100000000 H
   0.8873441500000000    0.4567483000000000    0.2523152300000000 H
   0.2360725000000000    0.6048143000000000    0.2604086300000000 H
   0.5624846700000000    0.7760872700000000    0.2521253500000000 H
   0.8863243600000000    0.9541640100000000    0.2438494100000000 H
   0.2419118300000000    0.0996889100000000    0.2643026900000000 H
   0.2048312400000000    0.3788446700000000    0.2962920500000000 H
   0.5352482800000000    0.5160098200000000    0.2366422900000000 H
   0.8705617800000000    0.6839725600000000    0.2450466700000000 H
   0.1809198300000000    0.8912618800000000    0.3142080700000000 H
   0.5395159100000000    0.0181478900000000    0.2495060600000000 H
   0.8742166400000000    0.1948093000000000    0.2455020500000000 H
   0.4747158400000000    0.2274024400000000    0.2460808800000000 H
   0.8351516900000000    0.3828141400000000    0.2436479400000000 H
   0.1222391500000000    0.6033163700000000    0.2707414600000000 H
   0.4740818100000000    0.7337201800000001    0.2552169300000000 H
   0.8327403400000000    0.8811537800000000    0.2417746500000000 H
   0.1258366300000000    0.1023819500000000    0.2657301100000000 H
   0.2287200000000000    0.7958943600000000    0.2749021600000000 H
   0.2237356500000000    0.2767047300000000    0.2799089500000000 H
   0.1339937600000000    0.3869859700000000    0.3248775600000000 H
   0.4690804200000000    0.5583506700000000    0.2671884100000000 H
   0.8039671000000000    0.7334902700000000    0.2709532100000000 H
   0.1303375700000000    0.8654660199999999    0.3431255100000000 H
   0.4666463800000000    0.0567843000000000    0.2749399600000000 H
   0.8041069300000000    0.2374564000000000    0.2721898200000000 H
   0.4498519100000000    0.2843701200000000    0.2802965400000000 H
   0.7822641800000000    0.4432097800000000    0.2696303400000000 H
   0.1472710900000000    0.6302743100000000    0.3157922900000000 H
   0.4575045100000000    0.7882043399999999    0.2914233900000000 H
   0.7822906400000000    0.9427463600000000    0.2676501800000000 H
   0.1454354300000000    0.1267030100000000    0.3139042600000000 H
   0.5214937400000000    0.4259171500000000    0.2595573700000000 H
   0.8449016700000000    0.6015397700000000    0.2728809500000000 H
   0.5309873600000000    0.9245790000000000    0.2671960500000000 H
   0.8611351900000001    0.1047384700000000    0.2683009000000000 H
   0.2372963400000000    0.5303551000000000    0.2611585100000000 H
   0.5948830400000000    0.6995681500000001    0.2681445000000000 H
   0.9336554700000000    0.8884806000000000    0.2735989100000000 H
   0.2395987800000000    0.0264103400000000    0.2614192500000000 H
   0.5937159700000000    0.2038995600000000    0.2631478100000000 H
   0.9329824900000000    0.3890315500000000    0.2802924400000000 H
   0.8724097100000000    0.1918829100000000    0.3004299800000000 H
   0.2095130500000000    0.3420102600000000    0.3429061000000000 H
   0.5389732800000000    0.5106081000000000    0.2917026600000000 H
   0.8690264700000000    0.6858125900000001    0.3002674000000000 H
   0.2139604100000000    0.8351162400000000    0.3488490400000000 H
   0.5340808900000000    0.0123263500000000    0.3039463300000000 H
   0.4879484000000000    0.2155678400000000    0.3005349800000000 H
   0.8233484400000000    0.3815850400000000    0.2984001700000000 H
   0.1484821900000000    0.5612729300000000    0.3163252700000000 H
   0.4899792300000000    0.7179581600000000    0.3089781500000000 H
   0.8259099300000000    0.8822318600000000    0.2969110700000000 H
   0.1429099100000000    0.0590339900000000    0.3107497200000000 H
   0.4500219700000000    0.4699390000000000    0.2920561900000000 H
   0.7740355799999999    0.6530584600000000    0.3017744300000000 H
   0.1694128300000000    0.7726757700000000    0.3044049900000000 H
   0.4536069700000000    0.9637280400000000    0.2962481300000000 H
   0.7859424400000000    0.1484805600000000    0.2976778500000000 H
   0.1499959700000000    0.2831913400000000    0.3114172000000000 H
   0.5683579700000000    0.2655590700000000    0.3001952000000000 H
   0.8778348000000000    0.4520880000000000    0.3102870100000000 H
   0.2616556000000000    0.5607951300000000    0.3088389400000000 H
   0.5794497700000000    0.7565416100000000    0.3086753900000000 H
   0.8808596100000000    0.9538685500000000    0.3023173600000000 H
   0.2588005500000000    0.0540153800000000    0.3120615200000000 H
   0.2021695700000000    0.3373878000000000    0.5070805500000000 H
   0.5444325400000000    0.5118513099999999    0.4995135400000000 H
   0.8660546900000000    0.6995475100000000    0.4811104800000000 H
   0.2051038400000000    0.8378794500000000    0.5227288900000000 H
   0.5447689200000000    0.0320591300000000    0.4817135900000000 H
   0.8674864000000000    0.1920276600000000    0.4557418700000000 H
   0.1748191100000000    0.5707097500000000    0.4957021600000000 H
   0.4795567000000000    0.7021156300000000    0.4895702800000000 H
   0.7757644000000000    0.8960764800000000    0.4740801500000000 H
   0.1352242200000000    0.0653837100000000    0.4784895000000000 H
   0.4416940300000000    0.2231340100000000    0.4595900600000000 H
   0.7824748400000000    0.3961616600000000    0.4821602400000000 H
   0.4871534200000000    0.4802657000000000    0.4412828500000000 H
   0.7927726600000000    0.6449285700000000    0.4609736400000000 H
   0.0945677700000000    0.8611122700000000    0.4883388300000000 H
   0.4635930900000000    0.9933919300000000    0.4472305300000000 H
   0.7731484400000000    0.1571269500000000    0.4526284500000000 H
   0.0857266900000000    0.3587764900000000    0.4850845100000000 H
   0.1284499000000000    0.6788955700000000    0.4845196100000000 H
   0.8545780700000000    0.9449446300000000    0.4529267800000000 H
   0.1559735400000000    0.1569880000000000    0.4654179900000000 H
   0.8617515800000000    0.4480839500000000    0.4698032700000000 H
   0.5419082000000000    0.7491234900000000    0.4462679300000000 H
   0.5258621600000000    0.2695511400000000    0.4517341200000000 H
   0.5332971300000000    0.4217738600000000    0.4713416800000000 H
   0.8641803100000000    0.6010541600000000    0.4862655100000000 H
   0.0908516300000000    0.8439432500000000    0.5419592000000000 H
   0.5346480200000000    0.9384868300000000    0.4637806700000000 H
   0.8395988900000000    0.1075544900000000    0.4787756300000000 H
   0.1011755200000000    0.3221056700000000    0.5344538500000000 H
   0.2060514100000000    0.6563727000000000    0.5064493900000000 H
   0.5951843600000000    0.6911374700000000    0.4747122500000000 H
   0.8948414200000000    0.8799208300000000    0.4792060400000000 H
   0.2146808900000000    0.1145264100000000    0.4991197400000000 H
   0.5616276600000000    0.1996452300000000    0.4714056600000000 H
   0.9016823000000000    0.3778314000000000    0.4875024800000000 H
   0.1554900700000000    0.4159225100000000    0.5064130000000000 H
   0.4540196300000000    0.5420665900000000    0.5071886500000000 H
   0.7848302300000000    0.7281055500000000    0.5078076600000000 H
   0.1704713400000000    0.9140854899999999    0.5064236300000000 H
   0.4660609700000000    0.0525556100000000    0.5109977300000000 H
   0.7956250200000000    0.2389966600000000    0.4865359800000000 H
   0.4233194700000000    0.2871393900000000    0.4939819700000000 H
   0.7651395000000000    0.4597064100000000    0.5168035800000000 H
   0.0980786500000000    0.6072533800000000    0.5257881700000000 H
   0.4630537000000000    0.7766048100000000    0.5079105000000000 H
   0.7561937600000000    0.9667939800000001    0.5002477000000000 H
   0.0681272100000000    0.1295830300000000    0.4992808400000000 H
   0.4477360100000000    0.4515624200000000    0.4769569900000000 H
   0.7906877800000000    0.6251098300000000    0.5133530300000000 H
   0.0580713900000000    0.9151052600000000    0.5235777300000000 H
   0.4640578100000000    0.9546315800000000    0.4930172700000000 H
   0.7730129100000001    0.1518186800000000    0.5077932300000000 H
   0.0563209900000000    0.3967234000000000    0.5307045400000000 H
   0.1367613100000000    0.6907629400000000    0.5377941700000000 H
   0.5812385799999999    0.7614468200000000    0.4899117600000000 H
   0.8785414900000000    0.9443477800000000    0.5051214000000001 H
   0.1500594600000000    0.1732142600000000    0.5201173900000000 H
   0.5469880100000000    0.2566485000000000    0.5050851300000000 H
   0.8884364600000000    0.4341230500000000    0.5227814300000000 H
   0.1713531300000000    0.3757889600000000    0.5571550300000000 H
   0.5055226300000000    0.4784865700000000    0.5380578900000000 H
   0.8579181100000000    0.6805189100000000    0.5368965700000000 H
   0.1654384500000000    0.8941238600000000    0.5624801900000000 H
   0.5396419099999999    0.9920116100000000    0.5299468200000000 H
   0.8667446100000000    0.1856306500000000    0.5140045800000000 H
   0.1785494900000000    0.5851159000000000    0.5528328000000000 H
   0.5211392500000001    0.7149586900000000    0.5374580000000000 H
   0.8003919900000001    0.8996386400000000    0.5297732200000000 H
   0.1304577600000000    0.0824310700000000    0.5357354700000000 H
   0.4613790800000000    0.2140907900000000    0.5166557899999999 H
   0.8100320200000000    0.3867732500000000    0.5380052200000000 H
   0.3127372800000000    0.3460928900000000    0.1758793200000000 Pb
   0.3156012600000000    0.8514617600000000    0.1860939300000000 Pb
   0.6873105500000000    0.5132645400000000    0.1652451800000000 Pb
   0.9919894600000000    0.7259845700000001    0.1677706000000000 Pb
   0.6811679600000000    0.0111860400000000    0.1634469600000000 Pb
   0.9967863200000000    0.2286841700000000    0.1663640900000000 Pb
   0.0390217300000000    0.5187817300000001    0.1750329300000000 Pb
   0.0437291000000000    0.0175579300000000    0.1734098200000000 Pb
   0.3412444200000000    0.7144799100000000    0.1780669100000000 Pb
   0.7040839200000000    0.8746101200000000    0.1643436800000000 Pb
   0.3362079700000000    0.2090520300000000    0.1723551800000000 Pb
   0.7091410900000000    0.3769730800000000    0.1637806600000000 Pb
   0.3251707700000000    0.4203433500000000    0.3944734500000000 Pb
   0.6558637600000000    0.5789680900000000    0.3869213500000000 Pb
   0.9742432200000000    0.7632641500000000    0.3864572900000000 Pb
   0.3203335800000000    0.9216043800000000    0.3970586800000000 Pb
   0.6540001400000000    0.0851105400000000    0.3801781200000000 Pb
   0.9745357000000000    0.2712800900000000    0.3861005400000000 Pb
   0.9921257700000000    0.5127811300000000    0.3947038200000000 Pb
   0.3220910100000000    0.6664760300000000    0.3962581200000000 Pb
   0.6549922200000000    0.8348253300000000    0.3853088700000000 Pb
   0.9879646100000000    0.0120188000000000    0.3945520100000000 Pb
   0.3197728800000000    0.1666192500000000    0.3913693900000000 Pb
   0.6540930000000000    0.3381437300000000    0.3841047400000000 Pb
   0.1784465300000000    0.8104789200000000    0.2899978300000000 C
   0.1730627000000000    0.3065193200000000    0.2898921200000000 C
   0.4791451700000000    0.4684736500000000    0.2623304700000000 C
   0.8055718200000000    0.6460289200000000    0.2724932500000000 C
   0.4855640100000000    0.9650540900000000    0.2685647300000000 C
   0.8175228500000000    0.1466744500000000    0.2690856900000000 C
   0.2280907900000000    0.5705840300000000    0.2804013600000000 C
   0.5623565000000000    0.7445995100000000    0.2776659300000000 C
   0.8865514300000000    0.9274318200000000    0.2726007700000000 C
   0.2294063800000000    0.0657338600000000    0.2818440300000000 C
   0.5561435300000001    0.2481620300000000    0.2697447200000000 C
   0.8857386800000000    0.4278774700000000    0.2793490000000000 C
   0.1610591300000000    0.3739835300000000    0.5223340800000000 C
   0.4994380000000000    0.5014733300000001    0.5067306499999999 C
   0.8329590200000000    0.6904531500000000    0.5050929900000000 C
   0.1645344100000000    0.8808360800000000    0.5284557400000000 C
   0.5121087500000000    0.0157537800000000    0.5013022499999999 C
   0.8357535100000000    0.1950204100000000    0.4844309900000000 C
   0.4583137600000000    0.2416266200000000    0.4879119400000000 C
   0.8013337100000000    0.4152427700000000    0.5092024200000000 C
   0.1514619600000000    0.6015191500000000    0.5223084600000000 C
   0.5011670100000000    0.7317619800000000    0.5051965200000000 C
   0.7928183400000000    0.9212364000000000    0.4978420200000000 C
   0.1215207000000000    0.1009435800000000    0.5027763400000000 C
   0.1285034500000000    0.5910746700000000    0.1737885500000000 I
   0.4651234200000000    0.7482566200000000    0.1658600000000000 I
   0.8703375700000000    0.8470807299999999    0.1600132500000000 I
   0.1318670100000000    0.0913252800000000    0.1734073900000000 I
   0.4618344600000000    0.2395034700000000    0.1576398600000000 I
   0.8738478900000000    0.3501937100000000    0.1620156100000000 I
   0.1467902700000000    0.3915511700000000    0.1738737100000000 I
   0.5594528900000000    0.4855232100000000    0.1523419100000000 I
   0.9010872700000000    0.6556122500000000    0.1621845700000000 I
   0.1527341900000000    0.8916655600000000    0.1675539400000000 I
   0.5546337900000000    0.9810700500000000    0.1564233800000000 I
   0.9067874100000000    0.1576567000000000    0.1621898200000000 I
   0.3332124400000000    0.3751284100000000    0.2721930300000000 I
   0.6815357800000000    0.5437032200000000    0.2625295800000000 I
   0.0003642300000000    0.7379910500000000    0.2649976500000000 I
   0.3327701000000000    0.8750866600000000    0.2847328400000000 I
   0.6808128100000000    0.0431671500000000    0.2602690600000000 I
   0.0063036600000000    0.2405232200000000    0.2629876000000000 I
   0.3690970600000000    0.6654362100000000    0.2709796300000000 I
   0.7011846500000000    0.8366227200000000    0.2606254600000000 I
   0.0246289600000000    0.0091138400000000    0.2697879600000000 I
   0.3631978500000000    0.1640064000000000    0.2664165300000000 I
   0.6992874200000000    0.3391841600000000    0.2589593400000000 I
   0.0150155500000000    0.5201018800000000    0.2713787300000000 I
   0.1659550800000000    0.4928748100000000    0.3824774400000000 I
   0.5038345900000000    0.6612854000000000    0.3815202900000000 I
   0.8235137300000001    0.8437577000000001    0.3757829600000000 I
   0.1648871800000000    0.9911780200000000    0.3817397500000000 I
   0.5007040100000000    0.1578293900000000    0.3705193700000000 I
   0.8186397000000000    0.3417879100000000    0.3760482400000000 I
   0.2819052400000000    0.3074229000000000    0.4092238800000000 I
   0.5900470400000000    0.4792143800000000    0.3735267300000000 I
   0.9243237399999999    0.6575315700000000    0.3773577400000000 I
   0.2851737700000000    0.8077520800000000    0.4193584200000000 I
   0.5999027500000000    0.9762270300000000    0.3768726700000000 I
   0.9476329300000000    0.1521653100000000    0.3694320100000000 I
   0.5018551900000000    0.3416560100000000    0.3833327200000000 I
   0.8431233700000000    0.5143574900000000    0.3997146500000000 I
   0.1667195700000000    0.6887661500000000    0.3844445600000000 I
   0.5028334000000000    0.8431072200000000    0.3863887500000000 I
   0.8392185599999999    0.0184028500000000    0.3886038200000000 I
   0.1635877700000000    0.1853772600000000    0.3812334200000000 I
   0.3762062800000000    0.5295385400000000    0.3728221200000000 I
   0.7064149000000000    0.6918276900000000    0.3898811200000000 I
   0.0413865800000000    0.8716691600000001    0.4013312600000000 I
   0.3790833900000000    0.0259396100000000    0.3749073200000000 I
   0.7070529100000000    0.1957868800000000    0.3769803700000000 I
   0.0473402400000000    0.3720675900000000    0.3960019100000000 I
   0.3386307900000000    0.4324045400000000    0.4907065700000000 I
   0.6560903100000000    0.5783725300000000    0.4846958400000000 I
   0.9726174600000000    0.7653034800000000    0.4838115100000000 I
   0.2975979900000000    0.9628775700000000    0.4934837900000000 I
   0.6515318700000000    0.0929256000000000    0.4777865200000000 I
   0.9742985900000000    0.2661492500000000    0.4822462000000000 I
   0.3302504100000000    0.1491071200000000    0.4868869000000000 I
   0.6505155400000000    0.3383353400000000    0.4825340400000000 I
   0.9940097000000000    0.5282416599999999    0.4912722100000000 I
   0.3267004900000000    0.6490833200000000    0.4932098100000000 I
   0.6514498200000000    0.8417416599999999    0.4831945900000000 I
   0.9761002100000000    0.0264307300000000    0.4923060800000000 I
   0.5797039100000000    0.2309665600000000    0.5943502100000000 I
   0.8189493900000000    0.5675409000000000    0.5992303100000000 I
   0.0908158700000000    0.7699653900000000    0.5947775500000000 I
   0.5508138500000000    0.8362949500000000    0.6019267500000000 I
   0.8247273400000000    0.0299175800000000    0.5898850400000000 I
   0.1187513900000000    0.2402390500000000    0.5770343700000000 I
   0.4385546800000000    0.3033150500000000    0.6092862700000000 I
   0.7001817200000000    0.6847108000000000    0.5969413300000000 I
   0.4290876300000000    0.8960476400000000    0.5531420500000001 I
   0.7361985599999999    0.1646385700000000    0.5879544300000000 I
   0.9326318700000000    0.9099627900000000    0.5943243000000000 I
   0.9294646000000000    0.4476002700000000    0.5980986500000000 I
   0.1802061700000000    0.3570011200000000    0.3146267600000000 N
   0.5074892700000000    0.5165643700000000    0.2646909300000000 N
   0.8395547000000000    0.6902614800000000    0.2722913000000000 N
   0.1756856400000000    0.8532078400000001    0.3256685200000000 N
   0.5076752700000000    0.0165463600000000    0.2746303500000000 N
   0.8435640700000000    0.1961626900000000    0.2721801600000000 N
   0.4882757900000000    0.2434441100000000    0.2745421100000000 N
   0.8282360100000000    0.4073228000000000    0.2722693600000000 N
   0.1564741800000000    0.5930017900000000    0.2962383300000000 N
   0.4918734100000000    0.7461663300000000    0.2836304800000000 N
   0.8283963400000000    0.9068968600000000    0.2695427400000000 N
   0.1558517600000000    0.0901572400000000    0.2933430500000000 N
   0.4913088400000000    0.4614120100000000    0.4719460000000000 N
   0.8189183799999999    0.6371427900000000    0.4903400900000000 N
   0.0979690300000000    0.8748338600000000    0.5199167200000000 N
   0.4920488100000000    0.9733711200000000    0.4744059200000000 N
   0.8032211500000001    0.1499288400000000    0.4803948900000000 N
   0.0968771500000000    0.3626316600000000    0.5175178200000000 N
   0.1559013300000000    0.6603397900000000    0.5121025200000000 N
   0.5583259699999999    0.7337057700000000    0.4774241500000000 N
   0.8592617800000000    0.9228495600000000    0.4826994600000000 N
   0.1633060500000000    0.1380651300000000    0.4962093900000000 N
   0.5273764399999999    0.2423058900000000    0.4782992500000000 N
   0.8672475600000000    0.4196291600000000    0.4962289000000000 N
   0.7615686699999999    0.0184338500000000    0.6987669700000000 Ti
   0.5866924400000000    0.1368569700000000    0.6988165800000000 Ti
   0.2910275100000000    0.6638343000000000    0.6991273600000000 Ti
   0.3480515400000000    0.9604773500000000    0.6988765600000000 Ti
   0.9968305200000001    0.1942719000000000    0.6984338600000000 Ti
   0.4686860000000000    0.5475439000000000    0.6987791700000000 Ti
   0.0557352800000000    0.4893973600000000    0.6979812600000000 Ti
   0.9377572800000000    0.8996104900000000    0.6971919200000000 Ti
   0.1722310700000000    0.0775285100000000    0.6987040600000000 Ti
   0.4091311700000000    0.2556429800000000    0.6974599900000000 Ti
   0.2308833100000000    0.3732016300000000    0.6981633699999999 Ti
   0.7026986600000000    0.7234645200000001    0.6967333000000000 Ti
   0.1136337600000000    0.7818242300000000    0.6957975100000000 Ti
   0.8214773800000000    0.3125600900000000    0.6982530800000000 Ti
   0.6450710900000000    0.4297186100000000    0.6983313799999999 Ti
   0.8795142800000000    0.6066894600000000    0.6982064300000000 Ti
   0.5235575200000000    0.8427766200000000    0.6968426900000000 Ti
   0.7054219300000000    0.1261617600000000    0.7624981300000000 Ti
   0.3495980800000000    0.3617528600000000    0.7628649500000000 Ti
   0.1739608300000000    0.4794108400000000    0.7650205800000000 Ti
   0.4687596100000000    0.9506245700000000    0.7619144900000000 Ti
   0.2918220000000000    0.0688451900000000    0.7625266300000000 Ti
   0.5275460000000000    0.2434564900000000    0.7622164400000000 Ti
   0.8812780400000000    0.0068896500000000    0.7602237300000000 Ti
   0.1157102000000000    0.1856563500000000    0.7622839000000000 Ti
   0.5876807300000000    0.5367540000000000    0.7624112800000000 Ti
   0.9402146200000000    0.3022422300000000    0.7623584600000000 Ti
   0.6441483099999999    0.8326285500000000    0.7606863100000000 Ti
   0.9978424100000000    0.5963959599999999    0.7625273100000000 Ti
   0.2321532400000000    0.7727648300000000    0.7615635600000000 Ti
   0.0573051300000000    0.8899221300000000    0.7600781400000000 Ti
   0.8206980900000000    0.7147787000000000    0.7604519100000000 Ti
   0.4099546100000000    0.6552354600000000    0.7623942300000000 Ti
   0.7640708100000000    0.4192821300000000    0.7624591800000000 Ti
   0.7002185700000000    0.9196741600000000    0.7592492300000000 Ti
   0.5244290100000000    0.0378639400000000    0.7582228300000000 Ti
   0.2285016900000000    0.5673029700000000    0.7601828600000000 Ti
   0.5821868800000000    0.3316111000000000    0.7584688600000000 Ti
   0.2863320200000000    0.8607799000000000    0.7583244200000000 Ti
   0.8761254800000000    0.8018714900000000    0.7593023800000001 Ti
   0.1105074400000000    0.9783479500000000    0.7594950499999999 Ti
   0.3471433100000000    0.1565213100000000    0.7577888400000000 Ti
   0.8176137999999999    0.5078853700000000    0.7582252300000000 Ti
   0.9346636800000000    0.0951986800000000    0.7594223000000000 Ti
   0.1701047500000000    0.2736094200000000    0.7580173600000000 Ti
   0.4054001200000000    0.4492375300000000    0.7583264500000000 Ti
   0.6418457500000000    0.6248469800000001    0.7581337500000001 Ti
   0.9936558599999999    0.3909228700000000    0.7582110800000000 Ti
   0.4640914900000000    0.7435169100000000    0.7590629500000000 Ti
   0.0519156000000000    0.6844222700000000    0.7582821800000000 Ti
   0.7594776800000000    0.2140059500000000    0.7584199000000000 Ti
   0.5837456300000000    0.7333183800000000    0.8230082900000000 Ti
   0.6429666600000000    0.0286265800000000    0.8236982700000000 Ti
   0.2304519000000000    0.9696751300000001    0.8232056300000000 Ti
   0.4657184500000000    0.1459233200000000    0.8239438400000000 Ti
   0.8197152700000000    0.9103534900000000    0.8234339800000000 Ti
   0.0544522700000000    0.0867117400000000    0.8233788200000000 Ti
   0.2886661100000000    0.2628811500000000    0.8237936500000000 Ti
   0.7609289500000000    0.6167835900000000    0.8232514700000000 Ti
   0.1123164300000000    0.3800347200000000    0.8241982300000000 Ti
   0.9366957100000000    0.4988035100000000    0.8238893600000000 Ti
   0.4062461800000000    0.8523875800000000    0.8226658300000000 Ti
  -0.0042969600000000    0.7933719000000000    0.8232117400000000 Ti
   0.7021022900000000    0.3212628900000000    0.8236693200000000 Ti
   0.5247595100000000    0.4393985500000000    0.8237047400000000 Ti
   0.8783907900000000    0.2036000400000000    0.8234233300000000 Ti
   0.3477435800000000    0.5566618400000000    0.8235300100000000 Ti
   0.1710785100000000    0.6758133800000000    0.8239012200000000 Ti
   0.5624517300000000    0.4968703600000000    0.6851908400000000 O
   0.0317198400000000    0.8503024200000000    0.6881489200000001 O
   0.7383642900000000    0.3800300000000000    0.6850933200000000 O
   0.3238355800000000    0.3236368800000000    0.6854952800000000 O
   0.7979848700000000    0.6762138700000000    0.6883946399999999 O
   0.1484752800000000    0.4398827700000000    0.6826907600000000 O
   0.3865470800000000    0.6135083600000000    0.6853455400000000 O
   0.6208423400000000    0.7932407200000000    0.6855065000000000 O
   0.6795805400000000    0.0867678100000000    0.6854379600000000 O
   0.4408977700000000    0.9103447900000000    0.6856670700000000 O
   0.2656316700000000    0.0269820700000000    0.6851678000000000 O
   0.5037609100000000    0.2034466900000000    0.6886267300000000 O
   0.0900768400000000    0.1457463200000000    0.6854410399999999 O
   0.9730047300000000    0.5567284100000000    0.6854076600000000 O
   0.2109815800000000    0.7301523000000000    0.6877322800000000 O
   0.9141079200000000    0.2631013600000000    0.6852577500000000 O
   0.8552161000000000    0.9700949000000000    0.6905744200000000 O
   0.6131744700000000    0.3795760800000000    0.7200030100000000 O
   0.7890551500000000    0.2627489100000000    0.7200542900000000 O
   0.4373230800000000    0.4966009000000000    0.7201607900000000 O
   0.9061943900000000    0.8499673900000000    0.7199755600000000 O
   0.7302886500000000    0.9671057100000000    0.7199525800000000 O
   0.0821822400000000    0.7330241000000000    0.7198927200000000 O
   0.8476699200000000    0.5564961800000000    0.7201240200000000 O
   0.6717533100000000    0.6733052100000000    0.7198917300000000 O
   0.2582624600000000    0.6133076100000000    0.7200020400000000 O
   0.5547047600000000    0.0862768000000000    0.7201255300000000 O
   0.3752328300000000    0.2063236800000000    0.7197582700000000 O
   0.9651368400000000    0.1438364100000000    0.7199837700000000 O
   0.1991207400000000    0.3229465200000000    0.7200707600000000 O
   0.0234803800000000    0.4395597200000000    0.7200145400000000 O
   0.3163377600000000    0.9098596500000000    0.7201322700000000 O
   0.1407580700000000    0.0269486400000000    0.7200425200000000 O
   0.4957898100000000    0.7902888300000001    0.7199135400000000 O
   0.2621021300000000    0.8202131700000000    0.7197057200000000 O
   0.7344874000000000    0.1735817100000000    0.7200069400000000 O
   0.1446699000000000    0.2333305400000000    0.7199715900000000 O
   0.8512754900000000    0.7631149300000000    0.7197592200000000 O
   0.4995830100000000   -0.0027024700000000    0.7198109200000000 O
   0.0860061800000000    0.9397547600000000    0.7196477500000000 O
   0.6173190600000000    0.5836576500000000    0.7199746700000000 O
   0.9688526900000000    0.3501414100000000    0.7199938500000000 O
   0.2030278400000000    0.5265435900000000    0.7224358800000000 O
   0.6757114100000000    0.8799381700000000    0.7199507900000000 O
   0.3206654400000000    0.1165650300000000    0.7198928600000000 O
   0.5548011300000000    0.2932154700000000    0.7199717400000000 O
   0.9100728400000000    0.0566542400000000    0.7197043000000000 O
   0.4379828300000000    0.7036034799999999    0.7203408400000000 O
   0.0275840600000000    0.6435454900000001    0.7199541300000000 O
   0.7930399500000000    0.4669083400000000    0.7199908699999999 O
   0.3790422500000000    0.4098994700000000    0.7200385300000000 O
   0.7842144200000000    0.0539999300000000    0.7467553900000000 O
   0.6090300700000000    0.1732292700000000    0.7465766900000000 O
   0.4298277400000000    0.2901382200000000    0.7464542000000000 O
   0.6675242400000000    0.4640424900000000    0.7467230700000000 O
   0.2533736700000000    0.4073687400000000    0.7468060100000000 O
   0.3129436200000000    0.6998904300000000    0.7467832800000000 O
   0.3713285600000000    0.9966286400000000    0.7464513300000000 O
   0.9612931900000000    0.9365207900000000    0.7443826900000000 O
   0.1952983500000000    0.1133754100000000    0.7464510200000000 O
   0.9023968500000000    0.6426661000000000    0.7462777700000000 O
   0.7232715400000000    0.7601270600000000    0.7460317100000000 O
   0.0780540300000000    0.5235864700000000    0.7466946800000001 O
   0.5474044100000000    0.8794467500000001    0.7441198500000000 O
   0.1372434000000000    0.8189907300000000    0.7438783600000000 O
   0.8436393300000000    0.3471662500000000    0.7465941200000000 O
   0.0193600200000000    0.2301470300000000    0.7464855200000000 O
   0.4914665400000000    0.5835021900000000    0.7464709200000000 O
   0.7382351800000000    0.5799371600000000    0.7758449600000000 O
   0.5030840500000000    0.4033614500000000    0.7759376600000000 O
   0.5618671200000001    0.6965494700000000    0.7756568500000000 O
   0.2660439000000000    0.2273014400000000    0.7757671500000000 O
   0.0899865300000000    0.3461041300000000    0.7756476300000000 O
   0.3832024600000000    0.8163297300000000    0.7754934800000000 O
   0.6209223200000000    0.9930900000000000    0.7758815000000000 O
   0.2072750300000000    0.9332961800000000    0.7759528200000000 O
   0.4445550800000000    0.1102384900000000    0.7757098400000000 O
   0.6795118000000000    0.2863102100000000    0.7757924500000000 O
   0.7966070900000000    0.8736285600000000    0.7760949200000000 O
   0.0313724300000000    0.0502395000000000    0.7760835500000000 O
   0.8553857800000000    0.1672254200000000    0.7759546000000000 O
   0.3248243700000000    0.5203502400000000    0.7759793699999999 O
   0.9141166200000000    0.4633128200000000    0.7758531100000000 O
   0.1485317700000000    0.6400380900000000    0.7759965800000000 O
   0.9728737200000001    0.7565791600000000    0.7759385700000000 O
   0.6132812100000000    0.5768732800000000    0.8004570900000000 O
   0.3752504700000000    0.4027465400000000    0.8004436700000001 O
   0.1990344500000000    0.5199635400000000    0.8029466000000000 O
   0.7304567800000000    0.1667170600000000    0.8005585100000000 O
   0.3167303800000000    0.1097666300000000    0.8003466700000000 O
   0.5545480600000000    0.2833032200000000    0.8002461000000000 O
   0.7890492500000000    0.4600887000000000    0.8004341900000000 O
   0.9063444600000000    0.0467627300000000    0.7999180100000000 O
   0.1404738300000000    0.2265870500000000    0.8003331000000000 O
   0.8473579900000000    0.7535058100000001    0.7999534100000000 O
   0.9648175900000000    0.3432650000000000    0.8003862300000000 O
   0.6679727800000000    0.8731127100000000    0.8000344200000000 O
   0.0235570200000000    0.6369190000000000    0.8003915100000000 O
   0.2577131100000000    0.8133932000000000    0.8000194800000000 O
   0.4957821900000000    0.9900584100000001    0.8002014800000000 O
   0.0820349500000000    0.9299371800000000    0.7998453900000000 O
   0.4338775700000000    0.6964468600000000    0.8006584000000000 O
   0.0858001600000000    0.1366318200000000    0.8002628800000000 O
   0.1445715900000000    0.4303355700000000    0.8026870100000000 O
   0.4375801900000000    0.9029012900000000    0.8002076200000000 O
   0.6723336600000001    0.0796617000000000    0.8003547800000000 O
   0.2616320700000000    0.0198981000000000    0.8002483800000000 O
   0.4963571600000000    0.1970239700000000    0.8023304200000000 O
   0.3203938100000000    0.3136548300000000    0.8023770300000000 O
   0.5547973600000000    0.4899005500000000    0.8002859300000000 O
   0.9099784600000000    0.2533527200000000    0.8002433000000000 O
   0.3790388500000000    0.6065451400000000    0.8001265500000000 O
   0.6133617900000000    0.7838471700000000    0.7998626100000000 O
   0.2029692100000000    0.7264041700000000    0.8025760300000000 O
   0.0271580900000000    0.8430893300000000    0.8000905500000000 O
   0.7344251899999999    0.3702377800000000    0.8003015300000000 O
   0.8513928800000000    0.9597431199999999    0.8001532000000000 O
   0.7925892500000000    0.6663484300000000    0.8001755900000000 O
   0.9686629500000000    0.5495194200000000    0.8026762200000001 O
   0.7263139199999999    0.9604149700000000    0.8371845400000000 O
   0.5502175300000000    0.0797593800000000    0.8373783100000000 O
   0.1367952300000000    0.0199209500000000    0.8373371100000000 O
   0.3714264600000000    0.1963860900000000    0.8372819800000000 O
   0.8438030100000000    0.5497644699999999    0.8374027100000000 O
   0.1953034700000000    0.3132176700000000    0.8374362700000000 O
   0.6677470700000000    0.6667831800000000    0.8372334200000000 O
   0.0191945500000000    0.4304444900000000    0.8374366500000000 O
   0.4884124900000000    0.7835715000000000    0.8347826000000000 O
   0.3127837300000000    0.9031170300000000    0.8372832500000000 O
   0.9024054200000000    0.8432680400000000    0.8373063100000000 O
   0.6090192200000000    0.3733053200000000    0.8373138400000000 O
   0.2539377600000000    0.6069166300000000    0.8370760699999999 O
   0.0782543700000000    0.7264568900000000    0.8374502000000000 O
   0.7851004000000000    0.2535554000000000    0.8373156500000000 O
   0.9609229400000000    0.1366884500000000    0.8373639100000000 O
   0.4301849600000000    0.4898512100000000    0.8372861100000000 O
