60
Generated C60 structure
C -0.573557 -0.167183 -2.552051
C -2.972331 -2.719420 -2.854285
C 2.426590 -0.317152 2.447289
C 2.565443 -2.895662 2.540202
C 2.736933 -3.083671 2.825994
C 2.742762 1.708784 -2.610040
C 2.842797 -2.686978 -2.708450
C 0.180352 -1.810601 -2.747924
C 1.882750 3.109154 -2.413071
C 2.479560 -2.924749 2.769895
C -2.877721 -0.786623 2.763039
C -3.222960 -0.925638 3.022643
C 2.802454 2.914576 2.380385
C 2.461915 -1.550998 -1.744712
C 2.526559 3.090315 2.161119
C 2.853900 -2.788332 -2.754840
C -2.750981 2.503716 1.653432
C 2.562634 -2.288550 2.671921
C 2.265406 -2.829773 2.492460
C 2.098317 3.134753 0.755869
C 2.841096 -3.053900 -2.901680
C 0.104929 0.706985 -1.605935
C -3.168218 2.687279 2.895617
C 1.389530 -2.676063 -2.252067
C -2.109754 0.398044 2.565850
C -2.727560 -2.608269 3.116325
C -2.064650 0.924352 -2.475610
C -0.535213 -1.445890 1.753184
C 2.498756 2.609023 -1.508165
C 2.125314 -2.744233 2.367569
C 1.562563 -2.674934 2.176064
C -2.850904 -2.862941 3.070897
C 2.932387 2.918998 -2.721636
C -2.880975 1.268352 -1.953331
C -2.705907 2.562395 2.887318
C -2.647087 -2.224324 2.933320
C -0.709876 -2.317420 2.497720
C 1.947601 2.798073 3.174523
C -2.733360 -2.134455 2.564004
C -3.116261 2.691645 1.841790
C -2.983306 -0.999759 0.360207
C -3.010877 2.748638 1.364546
C -2.733811 2.893563 2.551520
C 3.113412 -0.521854 -3.042025
C -2.155417 1.666411 2.970633
C -2.545717 2.673684 2.544564
C 2.650707 2.034743 2.561323
C -1.789701 2.994009 3.022222
C 2.296192 -3.154564 -2.760984
C 3.104698 2.133931 3.027472
C -2.396268 -2.923921 -2.502490
C 2.714331 -1.719294 -2.962384
C -2.998265 2.889282 1.420180
C -2.356195 2.765170 -1.555253
C -2.259102 -0.582414 2.334744
C -2.890068 1.939506 2.872854
C -2.890998 2.163852 2.024710
C -2.468304 -1.342082 1.930588
C 2.531943 -0.365750 -2.934575
C 2.039532 3.055728 2.369182
