60
Generated C60 structure
C 0.316199 2.418245 1.570931
C 2.975094 3.249327 2.310449
C -2.823187 -2.837291 -0.819608
C -2.810762 2.913931 2.234725
C 2.859111 0.841482 -2.589172
C 2.821214 -2.686710 2.805399
C 2.781701 -2.727645 -2.490245
C 2.618421 -1.827495 0.354687
C -2.581554 2.410074 -0.180993
C 2.188345 -2.931168 -3.309850
C 0.231299 0.578345 0.661978
C 0.367742 -3.120677 -1.722205
C -3.039129 -2.978706 2.945821
C 2.862901 2.197033 -2.855241
C -2.465251 2.083638 2.462189
C -1.439045 2.345177 2.521558
C -2.521100 -3.063351 1.684567
C -3.139821 2.786601 -2.404525
C -2.897298 -3.311845 -2.807362
C 2.346584 1.813072 2.893403
C 2.514870 1.064674 2.987305
C 2.354020 1.097279 -0.346919
C 2.824984 2.947926 -2.492198
C -2.032117 0.578770 2.956668
C 2.090622 -1.166605 2.548813
C 1.490169 1.819359 2.406874
C 2.691878 2.723038 -2.715112
C 2.850213 2.894200 2.847793
C 3.030881 -2.806534 -2.811672
C 2.873930 2.862272 1.784077
C -1.308646 0.274762 2.158010
C 2.793177 -2.779844 -2.882761
C 3.205668 1.885533 -1.219502
C -2.792103 -2.669533 -1.677101
C -1.652786 -2.646250 2.917295
C 2.666398 1.090199 0.966978
C -3.165601 2.763464 2.382964
C -2.917895 -2.986197 2.642588
C 1.793926 0.825836 2.663216
C -0.410198 -2.445983 1.632283
C 2.658509 1.964024 -2.744931
C -2.773882 -2.446130 2.863324
C -2.578766 -2.706890 -2.263576
C -2.246462 -2.323251 1.585454
C 2.804263 -2.230400 -2.621323
C 2.435906 1.648793 2.690848
C -1.656686 2.180374 -2.944199
C 1.383334 -2.902377 -2.975382
C 2.479288 1.771960 3.223364
C 2.406782 2.405400 2.172246
C 2.693673 2.268540 2.593731
C -0.951055 2.033281 -0.800016
C 3.012986 2.648551 2.897924
C 2.852801 2.068502 2.738794
C -1.595861 2.446228 2.278163
C 1.974938 -2.733210 2.754658
C -0.055112 -2.176082 -2.188826
C 3.178689 -3.041010 2.885418
C 3.060868 1.427209 1.524145
C -2.725376 -0.944004 3.147531
