60
Generated C60 structure
C 2.073450 2.796180 2.561337
C -2.351988 1.922099 1.760021
C -2.887292 2.687842 -2.563908
C 3.029527 -2.315506 3.262029
C -2.394130 2.718106 -2.357518
C -0.464087 -2.919783 2.796214
C -2.706426 -3.094007 -1.753442
C -2.768211 2.863569 2.897870
C -2.524859 -1.251711 2.798028
C -1.791604 -3.099722 -1.335957
C -1.464588 -3.055064 -2.159618
C 2.281280 2.310595 2.942017
C 2.310913 2.859420 -0.618966
C 2.824411 -3.004893 -0.168919
C 1.673508 3.007091 0.846033
C -2.221648 -1.193045 -2.489278
C -1.182285 2.349944 -2.704180
C -2.551014 2.809516 1.898765
C -3.150729 -2.924705 1.110273
C -2.867558 -2.721347 1.060608
C 1.834924 2.903414 0.949690
C 0.054526 -2.850793 2.730196
C -2.685149 0.154252 -2.964189
C 2.117246 2.397569 1.792920
C -2.767678 -2.238999 2.670016
C 2.075748 -2.329181 2.530159
C -2.939935 2.832900 2.803628
C 2.835867 -1.355772 -2.301244
C -0.272194 -2.627111 1.941883
C -1.495988 -2.604435 2.548156
C 3.016192 1.975365 0.579848
C -2.201586 2.583045 -2.895448
C 1.893836 -0.071206 3.061330
C 2.301329 0.861867 -1.527332
C -0.127120 2.604211 -2.493878
C -1.952539 -0.836454 -2.388775
C 0.245484 -0.240499 -2.658639
C -2.826538 2.059213 -2.552729
C -2.119999 3.180312 -2.717098
C -2.567331 2.739693 1.037629
C -1.631629 1.582034 -2.935370
C -2.641626 -0.102055 -2.533486
C -2.524238 3.001464 -2.494930
C 2.350505 -2.415218 -2.567559
C -2.943445 1.568790 -1.359997
C 2.664217 -2.232100 -1.852695
C -3.330571 -2.824143 2.793749
C -1.785918 2.257545 2.274938
C -3.044447 1.966156 -2.898830
C -1.835253 2.179349 2.325519
C 2.015482 -2.961679 -2.993959
C 2.728443 -2.834599 0.925730
C 2.636950 -2.056086 2.794808
C 3.004812 2.344285 2.791794
C 2.517414 -1.515072 -1.266722
C -2.172937 3.047203 2.851914
C -2.603940 2.407169 -0.531210
C -2.487824 0.988671 2.935441
C 3.052370 -2.604337 -2.912179
C -2.861375 -3.187164 2.648066
