60
Generated C60 structure
C 2.632553 -3.081345 0.821003
C 2.710158 -2.541711 2.397640
C -0.954143 -0.840969 -2.370965
C -2.967808 2.588529 -1.405805
C -2.923822 -2.731951 2.727375
C -3.288791 2.736015 2.881063
C -0.319661 2.730324 2.548203
C -2.633140 -2.747841 2.684046
C -1.527109 -1.051016 2.714981
C -2.157727 2.022151 1.324566
C 3.065062 2.914907 -1.414298
C -2.575899 -1.202881 1.862828
C 2.796726 -2.321559 2.141930
C -2.704752 1.863120 -2.596577
C 2.937392 1.776908 -2.904130
C -2.646069 2.166232 2.850651
C -2.401021 -2.391000 -0.858690
C 2.704550 2.585229 -2.791891
C -2.842833 3.052776 2.704437
C 2.491837 2.577242 2.814301
C 2.865797 -2.577582 2.271447
C -3.039512 2.780962 3.135213
C 2.795105 2.502756 -3.000123
C -2.298795 3.051131 -2.667762
C -2.678713 2.545757 3.135407
C 2.173656 2.081753 2.573069
C 2.841995 -1.400694 -2.720266
C -2.880243 -0.995977 2.214614
C -0.980931 2.893281 2.949484
C -0.989141 -2.853460 -2.256628
C -1.820578 1.773531 2.790407
C -0.668629 2.922136 1.067307
C -1.298406 -2.788280 -2.278245
C 1.054985 -0.162733 -2.073694
C 2.082405 2.804117 -2.908012
C -2.941126 3.017399 -2.517487
C 2.946807 -1.519848 -0.847527
C 1.165410 -2.859926 0.804049
C -2.513159 2.629647 -2.382973
C -2.208505 2.737461 -2.581834
C -3.076468 -2.127934 -2.537957
C -0.737082 -1.806648 -0.978627
C -2.878756 -1.840643 2.498419
C -2.420714 2.307817 2.770069
C -2.730814 2.443904 -0.704594
C 2.604985 -2.790311 2.646371
C 1.021207 1.363570 -2.252367
C -3.047711 -0.661377 -2.994095
C -2.729436 2.708315 -2.901408
C 3.120256 0.164289 -2.744124
C 0.582628 2.508432 -2.414745
C -2.674721 -3.073214 2.502221
C -2.785748 -2.669401 -1.952416
C 2.969607 0.000318 3.079643
C 2.572756 -2.328852 2.315367
C 2.781747 -2.397589 2.991225
C -2.837391 -2.551089 -2.111692
C 2.107094 0.059913 2.853255
C -2.755434 1.064342 -1.326231
C 2.904005 2.457313 2.338377
