60
Generated C60 structure
C 2.557536 1.594298 -1.962734
C -2.834751 -0.982989 -2.905854
C 2.363953 -2.830636 -2.362251
C -2.353994 2.840342 -0.936003
C -2.558609 2.615165 2.571844
C 3.069764 -2.868462 -2.731842
C 2.723417 -0.104606 2.094334
C -2.984690 0.332983 2.490951
C -1.435194 2.758685 2.436591
C -2.796261 -2.882015 2.645823
C -2.905707 2.793277 -2.583877
C -2.964657 -2.481178 -0.970328
C -2.955997 -3.070961 -2.528211
C -2.422750 -2.411473 -2.644579
C 1.846295 -3.071046 -2.903377
C -2.872023 2.850907 2.597120
C 0.496148 0.587510 2.820553
C 1.958252 2.879467 2.787908
C 2.637167 -2.867975 2.761719
C 1.479439 1.998083 2.206528
C 2.273085 1.222876 2.609651
C -0.851062 2.359469 0.570098
C -2.285312 2.692681 2.613146
C -3.119124 -2.300193 2.276582
C 2.809057 -1.758235 -3.076001
C -3.221565 -2.986573 -2.821190
C -0.741701 -2.663175 -0.801370
C -2.408593 -2.677009 -2.813142
C 2.746851 -2.486301 2.784540
C 2.949633 2.806467 -2.801434
C -1.701365 2.364180 0.356779
C -2.677701 0.454888 2.340542
C -2.626757 2.869470 -2.162521
C -1.775116 -2.728728 -2.717394
C 2.809754 2.317467 -1.446570
C -2.526436 1.691616 -1.157375
C -2.747962 1.023496 -2.859991
C 2.709937 -2.850747 -2.109791
C 0.452663 2.601007 1.464362
C 2.975079 2.981208 -2.638750
C -2.162761 -2.286714 1.775202
C -0.614489 2.992386 2.536548
C -2.728963 -2.453815 -3.098972
C 3.037224 -2.546643 2.415275
C -2.745567 -1.837461 1.777560
C -2.655058 -3.106995 2.543723
C 1.452815 2.007035 -1.556669
C -2.926969 2.252129 -2.769557
C 2.841703 -2.632863 2.687290
C 1.957515 2.206989 -1.720834
C 1.658487 -3.042622 1.019738
C -2.506463 2.145955 2.893656
C 1.426469 -1.202254 -2.563800
C 2.550066 2.844714 -1.449896
C -2.592314 2.709255 1.834026
C -3.058653 -3.087375 -2.699516
C -1.725588 2.790167 -2.036735
C 2.144100 2.981126 1.784506
C -2.371776 1.353790 1.331886
C 2.544011 2.048552 -2.357576
