60
Generated C60 structure
C -2.967619 2.151119 1.500813
C 0.120344 -3.098357 -2.030617
C -2.503257 2.007803 -3.254109
C 2.440132 -2.917500 2.834106
C 1.711599 -0.738653 2.592210
C 2.735897 -2.750413 -2.079381
C -2.577441 1.864619 2.661650
C -2.836999 2.572592 -2.770027
C -3.077273 2.108980 3.110471
C 2.734710 -2.201432 0.933041
C -2.957759 2.638338 2.709581
C 2.146830 -2.902256 -2.570914
C -2.258318 2.873371 2.553199
C -1.285928 -3.120879 2.888323
C 2.517554 0.537798 2.456863
C 0.934225 2.484159 2.922045
C -1.236736 0.091571 -1.815623
C 2.888003 -2.329049 1.504217
C 3.077898 -2.023066 -0.085424
C 2.147978 -1.663806 -2.789414
C 2.961016 2.899189 -2.792080
C 0.449346 -2.093031 2.302192
C 2.969550 2.850225 3.005020
C -2.318480 -2.672869 2.481774
C 1.355662 -2.873175 -2.850741
C -0.882616 -2.837128 -2.154856
C -2.719877 -3.072424 -2.525859
C -2.747562 1.309955 -2.392256
C -2.297009 -2.298191 -2.773451
C -2.647421 -3.025725 2.564314
C 2.567192 -2.780785 -2.137302
C -2.194595 3.045688 -3.205049
C -2.587315 2.201425 1.915412
C 2.933288 -2.778389 -2.839123
C 1.825819 2.826810 -1.271555
C 2.527484 -0.318934 3.003589
C -2.479401 2.751130 2.564418
C -3.032028 2.433368 -2.917563
C 2.645622 2.572991 -1.284718
C -2.573465 -2.507225 2.556006
C 0.373907 -2.940620 -2.685044
C -3.121010 2.913674 2.112072
C -2.128457 3.043592 -2.563244
C -2.743898 -2.527207 -2.946195
C 2.084448 -2.689585 -2.647219
C 2.744211 -0.875219 0.467361
C -2.780881 -3.119368 -2.120401
C -2.726848 -2.489841 -2.537721
C 0.922816 -2.024400 2.855102
C 3.080906 2.642675 -0.657213
C -2.761282 -1.243669 -1.255664
C -2.912476 1.837423 -1.941953
C 2.974456 -3.034113 2.914028
C 2.595398 -2.971889 -2.778040
C -2.759201 2.585202 1.165188
C -2.081563 0.573661 -2.866252
C -2.331463 -2.840221 2.338972
C 2.513843 -1.861157 2.074371
C 0.340315 2.745949 0.654616
C -1.610171 -2.691378 2.887762
