60
Generated C60 structure
C -2.771791 2.837671 2.425207
C -2.572218 -2.273618 -0.358271
C 2.386302 -1.402489 2.423743
C -2.597595 0.076966 -1.991064
C 2.323081 -2.319309 2.835983
C -2.656925 -2.932593 -2.091298
C -2.890757 2.798835 2.454460
C 2.730851 2.991282 2.853142
C -1.205030 2.740007 2.601285
C 2.827516 -2.963517 1.655313
C -2.225878 -0.496366 -3.229980
C -2.078468 2.548382 3.102868
C -3.030302 -2.876855 2.551882
C -1.958358 2.870646 -1.955682
C -2.976003 -3.069809 2.742857
C -2.392260 -2.566064 1.746271
C 2.469554 -2.919211 2.481036
C 3.011412 2.363335 -2.510511
C 2.968091 -2.428123 -1.702505
C 1.305994 2.495796 3.170461
C 2.653866 2.242718 -1.673065
C -2.037117 1.971243 2.869982
C -1.648389 -2.999789 2.527752
C -1.680858 2.859237 -0.285459
C -2.558169 -1.889300 0.324828
C -1.178374 -2.127790 -3.055900
C -3.060507 -2.185053 2.702563
C 2.505595 -1.805978 -2.187790
C 1.790386 1.789968 -2.530490
C 2.762268 2.827848 -2.871302
C -0.877852 2.477460 2.973252
C 1.006986 2.380437 -3.047754
C 2.547749 -1.628428 -2.138643
C 3.049235 3.066536 -3.014588
C 2.572774 -2.591150 -1.979372
C -0.252809 1.854378 2.805639
C -2.793182 -2.866954 3.042862
C -2.349965 3.067439 -2.611166
C 0.213834 2.055655 3.143344
C -2.821681 2.164772 -0.460112
C -2.608395 -1.719811 -2.842598
C -1.708083 2.853780 -1.661346
C -2.681960 -2.326255 -2.927544
C 3.023321 -2.466737 -2.829365
C -2.588579 -3.017783 0.584858
C -2.747033 -1.616898 0.235102
C 2.307174 3.061678 2.697919
C 2.480872 -3.164216 -2.999157
C -2.383938 -2.652425 3.132931
C -2.772080 -2.974228 3.067881
C -2.850223 -3.005928 2.975556
C -0.283767 -2.415400 -1.441366
C -2.500976 -1.826737 -2.662783
C 2.655198 -2.779956 -2.395388
C 2.745938 -2.355595 -0.098100
C -2.457037 2.919674 -1.869111
C 2.764047 -3.093040 2.637851
C 2.043705 -2.544680 2.799787
C 3.162982 2.920750 2.825703
C 2.876260 2.427646 1.577881
