60
Generated C60 structure
C 2.710649 2.743257 -1.240713
C 3.152985 -2.935119 3.001110
C -2.706057 2.484094 -2.680556
C 2.760616 -0.302326 3.115837
C -2.466434 -3.117779 -2.507869
C -0.676524 -2.634888 2.803403
C 2.752146 -0.988515 1.524284
C 2.422023 2.287570 2.545337
C -2.907742 -2.422947 -1.856950
C 2.172958 -2.652354 1.933463
C -2.940095 2.859506 -2.745588
C -2.583412 3.056409 2.965068
C 2.840029 -2.479181 -0.167782
C -0.840223 0.790389 2.824522
C -2.631194 -3.009103 2.716667
C 2.734200 -2.775521 2.372025
C -1.666492 -1.755381 -2.665665
C -2.419929 2.064587 2.022469
C 2.667567 -2.186745 2.711097
C -1.867956 2.595667 -1.597175
C -2.399087 2.451166 2.456618
C -0.781680 -2.491108 2.852127
C -2.153914 0.487496 2.805319
C -2.675282 0.680917 -3.057878
C -0.012135 -2.087308 1.577745
C -1.519054 -1.094970 -2.929250
C -2.902150 -2.275189 3.099173
C 3.054300 2.336686 2.382457
C -2.355485 -1.470052 0.337612
C 2.799781 0.666040 -0.209454
C -3.084833 -2.637411 -1.750231
C -2.206176 0.133449 -2.571459
C -2.163603 -2.243926 -2.933275
C -2.611697 -2.794527 -2.836969
C -2.676412 2.921364 -2.826817
C -2.880538 1.777864 -2.901534
C -2.659973 2.486682 1.681802
C 2.642109 -2.939618 0.908292
C 2.678444 -1.378110 -2.477008
C 1.718057 0.510685 -2.300404
C -2.094600 -2.051333 -2.452281
C -2.664256 -1.875549 2.892864
C -2.577486 -2.612821 -1.864457
C -1.916320 -2.769483 1.933043
C 2.339356 -2.903154 -2.164403
C -3.053365 2.767564 2.689496
C 2.364230 -3.074367 2.859760
C -2.776217 1.747225 -2.759029
C -2.926027 -2.932477 0.370498
C 2.395161 -2.521219 0.774568
C -2.516124 2.365532 3.050341
C 2.125156 -2.887618 -2.532821
C 2.800557 -2.719063 2.619143
C -2.341533 2.804988 2.888596
C -0.169442 2.917464 1.702649
C -2.842362 -2.383238 2.710129
C -0.004904 1.719571 2.319787
C -1.020210 1.101339 2.804603
C 2.963526 -2.491412 -2.957665
C -2.350309 -1.951163 0.059974
