60
Generated C60 structure
C 2.686587 -2.718690 -2.795533
C -3.025725 -2.111880 2.644158
C 2.174827 -2.701083 1.372293
C 2.432256 2.460831 -2.150581
C 1.464628 -1.480766 -2.492282
C -2.402703 2.141848 -2.876408
C -2.069735 2.765149 -2.643783
C 2.935773 -1.606455 -2.761559
C -2.427956 3.026951 -2.533182
C -1.010977 -2.194359 -2.932425
C -2.766016 1.052418 -2.213820
C 1.923959 -2.558219 -1.888115
C -2.887639 -2.626244 2.695388
C 2.299879 2.464870 -1.513136
C 2.648342 0.133033 0.383262
C 3.060276 0.303809 -3.015300
C -2.922221 2.906729 -2.757956
C 2.878812 -2.385309 2.362976
C 2.882265 0.714116 -2.684361
C 2.736135 -2.548531 0.423267
C 0.291210 2.081844 -0.781717
C -2.842587 1.378569 2.863848
C 0.161372 -2.958801 -2.493606
C 2.567604 2.735868 -0.905993
C 2.614587 0.949637 -2.691960
C -2.988173 2.676295 -2.135697
C 2.674466 2.980149 -0.627444
C 2.085870 0.256512 -0.391898
C 2.985960 -2.963131 -2.955044
C 1.092866 0.114289 -0.208250
C -2.827351 -1.654276 2.524812
C -1.979355 2.490562 2.767563
C -2.840142 1.939734 2.493263
C 3.001776 1.998401 -2.933608
C -2.679862 -2.761580 -2.789683
C -1.537246 2.563384 2.931570
C 3.066633 0.532675 -1.299081
C 1.374976 2.299232 2.109629
C 3.123857 2.905557 -2.540695
C -3.150540 -2.959739 -2.623410
C 2.458827 -0.002328 -2.070643
C -2.418374 2.683678 1.317800
C 2.414844 -2.205495 -2.518837
C -2.005817 2.844178 2.539638
C 3.086039 -2.746398 -2.708719
C -3.050859 2.713503 1.555435
C -2.897545 -2.583714 -2.536055
C 0.181653 -2.992366 2.396675
C -2.712257 -2.431549 1.919700
C -2.592790 -1.910351 2.846287
C -2.742343 -2.889513 -1.286154
C -1.725195 -2.251583 -2.834364
C -3.076306 0.441869 2.468474
C -0.914726 2.320060 -2.315186
C 2.904296 -2.955021 2.436627
C 2.928429 2.802985 -2.531370
C 2.544134 2.975177 1.950668
C 2.792633 -2.582706 2.782055
C 2.752785 2.781349 2.854232
C 2.817164 2.922896 2.897407
