60
Generated C60 structure
C 2.281564 2.849981 2.741911
C 2.842878 -2.876009 1.457531
C -2.792474 1.723571 -1.236301
C 2.169650 -3.137150 0.838269
C -1.995917 -0.832774 -3.080213
C 2.416911 -2.631120 -2.714906
C -2.942088 -2.734125 -0.909101
C -2.935532 -2.143816 3.047890
C 3.069901 -2.926931 1.822961
C -2.817118 2.394225 -3.007805
C 2.776417 3.095356 -2.288222
C -2.559440 -1.461117 1.596313
C 2.673544 2.699033 2.188008
C -1.760473 -3.001940 2.985930
C -2.935900 -2.848101 2.873755
C -2.193048 -0.397615 -2.812559
C -2.071683 3.025619 2.037967
C -2.713356 -2.547052 2.963610
C 2.164472 3.002563 -2.686464
C -2.744300 -1.218326 -1.984720
C 2.918619 2.459941 -2.088224
C -2.694543 1.961631 -2.135212
C -2.452262 3.032336 2.752838
C 2.392892 -3.008520 -2.973173
C -2.412353 -2.034198 0.795909
C -3.008422 2.712393 2.500092
C -1.718872 2.433689 2.030056
C -2.738167 -2.575408 -2.608678
C -2.859097 2.486224 2.667946
C 2.532383 3.222154 2.461146
C -0.712399 -0.755306 -3.010579
C -2.661519 2.745611 -3.072565
C -0.543680 -2.888949 -2.116010
C -2.661647 0.560711 -2.614328
C -2.600047 -1.928068 1.598115
C -1.005593 -2.864306 -2.366235
C 2.349197 -2.004559 -2.924920
C 2.954364 -2.805016 -0.681386
C 2.615576 -0.664788 2.468320
C -2.370580 -1.895866 2.629348
C 2.253316 2.591083 2.224680
C -2.047133 -1.457872 -2.537163
C -2.646467 2.223822 -1.727746
C 2.720490 2.720310 -2.065100
C -2.689931 -3.181934 2.033149
C 2.678658 2.971323 2.628320
C -2.590847 -2.669021 -2.127594
C -2.733811 -2.777646 2.945462
C 1.775950 -3.112562 2.976969
C 3.109354 2.937293 -2.774118
C 3.079154 -3.022471 -2.729882
C -2.783861 -0.621750 -2.754384
C 2.638622 -1.813718 3.107047
C -2.933347 2.515379 -2.776693
C -2.755227 1.382586 1.262042
C -2.548119 2.802681 -0.724561
C -1.784365 -2.707552 -2.642512
C -2.743312 1.961996 2.114401
C 2.772188 0.416284 -2.684982
C -1.277581 -2.029539 2.716733
