   240
 Tv_1:  12.704744   0.000000   0.000000 Tv_2:   0.000000  12.976860   0.000000 Tv_3:   0.000000   0.000000  48.050983
H       9.37678713     11.60555627      9.83560376
H       1.35743837      1.66203730     10.00877950
H       7.29595334     10.70000503     10.06677704
H       6.93153046      4.21117275     10.09801018
H       1.78942508      9.69059997     10.11377090
H       1.88678153      7.92513710     10.19367969
H       1.45596366      3.42594295     10.21760908
H       8.95800065      5.20269569     10.29184784
H      11.29332317     10.43757399     10.37204494
H       7.51486878      2.57345408     10.40880394
H       7.87657284      9.08176463     10.45579780
H      10.40286037      8.97320022     10.78292889
H       3.41581018      1.27208266     10.94788792
H      10.83963676      4.03983926     10.97542113
H       9.98699598      2.51063310     11.12495579
H       3.49142881      4.21328797     11.48000450
H       3.32516183     10.96708178     11.50710526
H       3.66641125      8.00500967     11.71069727
H       4.62629278      2.98710447     11.95282617
H       4.42919138     10.04649036     12.52376795
H      10.15142078      9.17094161     15.08997875
H       3.14399218      3.39668013     15.35075144
H      10.23529750      3.83592089     15.45348444
H       3.94792297      8.16414491     15.80685137
H       8.58840694      9.39890611     15.84831937
H       8.84199363      4.64607923     16.21672625
H       2.48389179      2.08277305     16.31667230
H       2.43488960      7.84259129     16.64207355
H       4.24346072     10.22320924     16.78824464
H      11.33225051      9.39986640     17.04358757
H       3.51171829      4.76394805     17.15722814
H      10.61364478      2.50112107     17.31632495
H       1.71622034      9.64257261     18.30425316
H       2.72878844     11.05402675     18.36335587
H       8.67549796      9.79995597     18.39458901
H       8.29760806      3.99066994     18.50895035
H       2.57103363      2.45615625     18.82781667
H      10.30469081      9.76362076     19.06663005
H       9.26731035      2.72512762     19.23187738
H       3.01909184      4.07379971     19.33374547
H       9.11415466      8.68652841     21.87098152
H       2.01456585      9.84638718     22.05741934
H       3.29543273     11.02462118     22.06702953
H       7.92821763      9.93801679     22.14093195
H       3.02469463      1.66868145     22.47464602
H       1.69246247      2.79136152     22.53850578
H       7.92815410      3.80057192     22.66670580
H       9.15831635      5.02579513     22.75036256
H      10.37258496      9.30542082     23.74766072
H       8.40089763      1.66058389     23.94495805
H       1.94559179      8.25108987     24.02799015
H       4.19764742     10.23701662     24.07815538
H       4.26569403      2.82015717     24.08723701
H       1.96162518      4.74676669     24.12409212
H      10.54319697      3.75275219     24.13793080
H       8.20709946     11.33711695     24.19986852
H       9.91873339      1.61613814     24.80406158
H       3.43587097      4.75912066     25.05743441
H       9.63413442     11.00066590     25.16156089
H       3.19873692      8.47577122     25.22133631
H       8.83993547      8.61171681     28.31490665
H       2.44462143      2.10601461     28.43782106
H       7.51005368      9.69943722     28.58014808
H       1.16184884      3.22388026     28.77086243
H       8.86820352      1.93326665     28.87989011
H       2.37297938      8.24548387     29.27352376
H      10.57268468      3.39426643     29.44006847
H       4.15522628      9.70169519     29.52348497
H       7.69450116      2.72078038     29.91442777
H      10.13797916      9.54148288     30.02931767
H       3.87814852      3.03241967     30.03604481
H       1.26977564      9.26032623     30.18447430
H       7.86671396     11.47330909     30.41055417
H       1.65442447      4.98755233     30.54788388
H       3.90485389     11.76052594     30.58810255
H      10.22739515      5.20532999     30.82484975
H       2.18395820     11.45412929     30.92450749
H       8.50660110      4.82233094     31.05520616
H       9.45365083     11.40178064     31.15015490
H       3.30314451      4.93663113     31.16053391
Pb      7.05914961      0.04099390     13.39392321
Pb      0.26030750      6.19765750     13.40718528
Pb      6.82291760      6.51303413     13.58430120
Pb      0.52748827     12.60834313     13.82474832
Pb      6.66427347      0.16645418     18.87332095
Pb     12.60106058      6.29328398     19.84250928
Pb     12.45132247      0.18071575     20.27213312
Pb      6.08534369      6.40376897     20.27232532
Pb      5.65170537     12.94345756     26.95631316
Pb     12.03052865      6.36550021     26.99417733
Pb      6.12278457      6.04732057     27.63772415
Pb     12.43979927     12.43637378     27.73925587
C       9.29822099     10.55449550     10.10862945
C       8.89769123      4.12324154     10.44119030
C       3.04973568      2.29781260     10.87398550
C       3.24298754      8.93064910     11.32013888
C       3.37618408      9.62745457     17.06919874
C      10.24510556      9.47905120     17.08049072
C       3.10975289      3.76514509     17.32877015
C       9.79949937      3.23065418     17.33362330
C       9.45243117      9.84171551     23.51283556
C       3.31320666      9.75684684     23.65703656
C       3.28681891      3.19357929     23.78600540
C       9.58716498      3.34607037     23.80714783
C       9.13449496      9.92863452     29.84081367
C       9.59227229      3.52964104     29.90376045
C       2.86937914      3.43497484     29.91807965
C       3.19688203      9.95409512     29.98208356
C       6.37709543      6.40977725     33.16051193
C       7.24005246      7.54547311     33.43800636
C       5.00766378      6.80754396     33.43935178
C       6.80496580      5.11332405     33.46683695
C       5.02428159      8.18909941     33.88944534
C       6.40402949      8.64484673     33.88944534
C       8.49923235      7.34198297     34.01336883
C       4.11692147      5.89492033     34.01514671
C       8.11276674      4.90277450     34.06439897
C       5.88014937      4.16550718     34.06521584
C       8.94434305      5.99589328     34.33223515
C       4.56160022      4.54897339     34.33458965
C       6.85898637      9.50151415     34.89803547
C       4.15062716      8.60661690     34.89942895
C       7.99663267      3.82439743     35.03132890
C       6.61673231      3.36884476     35.03166526
C       8.97145498      8.23142993     35.06078415
C       3.20925645      6.32843829     35.06381137
C       8.16664756      9.29043254     35.49535724
C       3.22569639      7.65883896     35.49732733
C       9.69054349      6.05325100     35.57762053
C       3.92830684      4.15023341     35.58011918
C       5.95127053      9.93470769     35.94679623
C       4.62258299      9.49573944     35.94732479
C       9.70766948      7.43492324     36.02766603
C       3.09265231      5.25035969     36.03088545
C       8.71531463      3.87974374     36.23077754
C       6.00724763      2.98509306     36.23149830
C       9.57895772      5.01472587     36.50860832
C       4.63808278      3.38340480     36.51062646
C       8.06730916      9.59393534     36.91290929
C       3.12609119      7.96196543     36.91478328
C       6.69783940      9.99144252     37.19198940
C       3.98928962      9.09741473     37.19290237
C       9.61197735      7.72631863     37.39289056
C       2.99673149      5.54214439     37.39606193
C       8.08251674      3.48108163     37.47659538
C       6.75379109      3.04237292     37.47683563
C       8.77615765      8.82630217     37.84346463
C       3.01413699      6.92371281     37.84605938
C       9.47914925      5.31809890     37.92616037
C       4.53824890      3.68638853     37.92832267
C       9.49529698      6.64827896     38.36020490
C       3.73344148      4.74549496     38.36251135
C       6.08796087      9.60826180     38.39182245
C       4.70827649      9.15235875     38.39211075
C       8.55430741      4.37045073     38.52434706
C       5.84596090      3.47543669     38.52554833
C       8.14296591      8.42827592     39.08937857
C       3.76054070      6.98061635     39.09149281
C       6.82414996      8.81109329     39.35822382
C       4.59140555      8.07424122     39.35942509
C       8.58746679      7.08218623     39.40853320
C       4.20547354      5.63453964     39.41045524
C       7.68008127      4.78729342     39.53418652
C       6.30015550      4.33192243     39.53461898
C       5.89923190      7.86332832     39.95655466
C       7.69749948      6.16879696     39.98432813
C       5.46483129      5.43202276     39.98572161
C       6.32825840      6.56725145     40.26321603
I       0.37270637      5.78906808     10.29814252
I       6.13199551      0.11779096     10.37045925
I       6.17096096      6.80816685     10.49260485
I       0.76548624     12.07556517     10.50500201
I       9.92234154      0.25836928     12.29052848
I       9.78735364      7.27804598     12.69309962
I      12.15451424      3.33663620     13.73460467
I       3.38771999      5.78886045     13.84392066
I       6.46625733      2.98026567     13.85780740
I       3.56232128     12.83137642     14.32678499
I       6.15859924      9.42632622     14.37051138
I       0.26610086      9.67126445     14.39895757
I       8.41991663     12.84506701     16.41570537
I       0.25216376      6.35091421     16.79598085
I       6.68327976      6.02372864     16.83269180
I       0.10190475      0.50672043     16.84936549
I       6.26702153     10.18224129     19.45651573
I       2.96448685      0.09274562     20.14489411
I      12.59420002      9.42309498     20.38827234
I       9.30250249      6.57948863     20.48980407
I       9.01989816      0.28201312     20.76542451
I       6.04977041      3.39531756     20.81083269
I       2.75597659      6.20845425     21.01548182
I      12.21595438      3.19100987     21.08135972
I       6.07252460      7.05441575     23.18503176
I      12.46426861     12.62233218     23.19646789
I       6.11713096     12.94088814     23.87499582
I      12.53098122      6.44873379     23.91977934
I       9.06693113      7.01043717     26.28686686
I       6.27060427      3.38404067     26.29056679
I      12.39601872      9.80356354     26.35413824
I       2.68602427      0.55320354     26.38599604
I      11.94096020      3.27663120     26.94843280
I       5.46499645      9.85200616     26.98985274
I       9.38864065     12.91867176     27.29060385
I       3.01022393      6.48495220     27.36762957
I       5.87782440      0.30887522     30.28643848
I      12.25719398      6.60622096     30.32348579
I       6.02058761      5.49122319     30.67156711
I      12.29356767     11.76470448     30.74599808
N       8.08292329     10.04833307     10.17633328
N       7.71565455      3.56858459     10.24917857
N       1.90004528      2.49621581     10.25984589
N      10.42021505      9.89607557     10.33014448
N       2.29229155      8.84271789     10.40837148
N       9.99489833      3.49159288     10.79878572
N       3.81274449      3.24690121     11.37688709
N       3.72938867     10.06611137     11.77273109
N       9.60472294      9.32523648     15.93985649
N       9.61489944      3.96799937     16.26078900
N       2.93545651      3.00239121     16.26982259
N       3.25858897      8.44317335     16.50628148
N       2.53342759     10.14154586     17.93925789
N       9.69082299      9.72530010     18.24697639
N       9.06423772      3.32053191     18.42692732
N       2.85750020      3.40707459     18.57156078
N       8.81058751      9.50497897     22.41597577
N       2.86034606     10.21287966     22.50780120
N       2.61640227      2.50749270     22.88817278
N       8.81631735      4.11841415     23.07417814
N       9.28552895      2.11936780     24.18554932
N       2.77467798      8.76903528     24.34046569
N       9.06061687     10.78117529     24.34800970
N       2.85964730      4.30241305     24.35243039
N       8.41729945      9.33761640     28.91246868
N       2.07093680      2.83737746     29.06176308
N       8.65163845      2.67590639     29.55861024
N       2.22125933      9.07644412     29.85864058
N       8.73669672     10.94603332     30.58541170
N       3.09769609     11.11408365     30.59881792
N       2.53906850      4.46816648     30.67075024
N       9.44455423      4.53584081     30.74470071
