   310
 Tv_1:  12.704744   0.000000   0.000000 Tv_2:   0.000000  12.976860   0.000000 Tv_3:   0.000000   0.000000  57.196262
H       9.37678713     11.60555627      9.83558361
H       1.35743837      1.66203730     10.00877389
H       7.29595334     10.70000503     10.06677090
H       6.93153046      4.21117275     10.09800006
H       1.78942508      9.69059997     10.11378622
H       1.88678153      7.92513710     10.19368940
H       1.45596366      3.42594295     10.21759744
H       8.95800065      5.20269569     10.29183819
H      11.29332317     10.43757399     10.37208454
H       7.51486878      2.57345408     10.40880454
H       7.87657284      9.08176463     10.45581987
H      10.40286037      8.97320022     10.78292529
H       3.41581018      1.27208266     10.94787931
H      10.83963676      4.03983926     10.97539072
H       9.98699598      2.51063310     11.12495894
H       3.49142881      4.21328797     11.47997614
H       3.32516183     10.96708178     11.50714436
H       3.66641125      8.00500967     11.71070586
H       4.62629278      2.98710447     11.95281764
H       4.42919138     10.04649036     12.52375072
H      10.15142078      9.17094161     15.08997541
H       3.14399218      3.39668013     15.35073317
H      10.23529750      3.83592089     15.45351485
H       3.94792297      8.16414491     15.80687336
H       8.58840694      9.39890611     15.84834065
H       8.84199363      4.64607923     16.21674177
H       2.48389179      2.08277305     16.31666364
H       2.43488960      7.84259129     16.64211037
H       4.24346072     10.22320924     16.78824682
H      11.33225051      9.39986640     17.04357094
H       3.51171829      4.76394805     17.15721991
H      10.61364478      2.50112107     17.31628271
H       1.71622034      9.64257261     18.30423375
H       2.72878844     11.05402675     18.36331749
H       8.67549796      9.79995597     18.39460384
H       8.29760806      3.99066994     18.50893917
H       2.57103363      2.45615625     18.82780833
H      10.30469081      9.76362076     19.06660272
H       9.26731035      2.72512762     19.23184272
H       3.01909184      4.07379971     19.33376646
H       9.11415466      8.68652841     21.87099264
H       2.01456585      9.84638718     22.05745246
H       3.29543273     11.02462118     22.06700423
H       7.92821763      9.93801679     22.14095900
H       3.02469463      1.66868145     22.47464199
H       1.69246247      2.79136152     22.53847302
H       7.92815410      3.80057192     22.66670704
H       9.15831635      5.02579513     22.75038517
H      10.37258496      9.30542082     23.74765920
H       8.40089763      1.66058389     23.94492910
H       1.94559179      8.25108987     24.02797808
H       4.19764742     10.23701662     24.07813920
H       4.26569403      2.82015717     24.08723340
H       1.96162518      4.74676669     24.12406780
H      10.54319697      3.75275219     24.13796649
H       8.20709946     11.33711695     24.19985284
H       9.91873339      1.61613814     24.80407416
H       3.43587097      4.75912066     25.05745360
H       9.63413442     11.00066590     25.16155079
H       3.19873692      8.47577122     25.22137808
H       8.83993547      8.61171681     28.31489511
H       2.44462143      2.10601461     28.43780988
H       7.51005368      9.69943722     28.58017137
H       1.16184884      3.22388026     28.77086371
H       8.86820352      1.93326665     28.87987979
H       2.37297938      8.24548387     29.27356166
H      10.57268468      3.39426643     29.44005998
H       4.15522628      9.70169519     29.52350932
H       7.69450116      2.72078038     29.91444577
H      10.13797916      9.54148288     30.02929587
H       3.87814852      3.03241967     30.03604503
H       1.26977564      9.26032623     30.18446933
H       7.86671396     11.47330909     30.41056615
H       1.65442447      4.98755233     30.54789438
H       3.90485389     11.76052594     30.58810335
H      10.22739515      5.20532999     30.82489587
H       2.18395820     11.45412929     30.92447456
H       8.50660110      4.82233094     31.05522522
H       9.45365083     11.40178064     31.15011382
H       3.30314451      4.93663113     31.16052354
Pb      7.05914961      0.04099390     13.39393465
Pb      0.26030750      6.19765750     13.40714699
Pb      6.82291760      6.51303413     13.58428381
Pb      0.52748827     12.60834313     13.82473690
Pb      6.66427347      0.16645418     18.87327936
Pb     12.60106058      6.29328398     19.84252721
Pb     12.45132247      0.18071575     20.27212834
Pb      6.08534369      6.40376897     20.27229993
Pb      5.65170537     12.94345756     26.95631230
Pb     12.03052865      6.36550021     26.99417622
Pb      6.12278457      6.04732057     27.63774856
Pb     12.43979927     12.43637378     27.73927193
C       9.29822099     10.55449550     10.10863856
C       8.89769123      4.12324154     10.44117763
C       3.04973568      2.29781260     10.87398174
C       3.24298754      8.93064910     11.32016978
C       3.37618408      9.62745457     17.06919486
C      10.24510556      9.47905120     17.08046252
C       3.10975289      3.76514509     17.32875150
C       9.79949937      3.23065418     17.33367038
C       9.45243117      9.84171551     23.51281135
C       3.31320666      9.75684684     23.65700312
C       3.28681891      3.19357929     23.78598069
C       9.58716498      3.34607037     23.80714331
C       9.13449496      9.92863452     29.84083418
C       9.59227229      3.52964104     29.90375007
C       2.86937914      3.43497484     29.91810633
C       3.19688203      9.95409512     29.98205176
C       6.35139373      5.86978415     33.16050523
C       6.35258798      7.33855708     33.20889327
C       7.55866203      5.17800072     33.45638149
C       5.14291849      5.18028465     33.45672467
C       7.56145708      8.00652797     33.54949701
C       5.14516723      8.00865617     33.55006897
C       8.79346151      5.88690063     33.71113365
C       3.90942760      5.89117002     33.71216318
C       8.79480822      7.28004441     33.75740542
C       3.91058373      7.28427487     33.75826337
C       7.55784893      3.98610209     34.26347795
C       5.14169883      3.98834708     34.26370673
C       7.56270214      9.14275587     34.43346524
C       5.14632336      9.14488408     34.43386561
C       9.57100455      5.12950620     34.67014337
C       3.13046163      5.13508625     34.67111571
C       9.57369796      7.97124388     34.76405963
C       3.13321856      7.97692775     34.76508917
C       6.34928475      3.45643857     34.79494561
C       6.35504000      9.63804369     34.99902188
C       8.79208940      3.95874687     35.01709590
C       3.90776327      3.96312007     35.01795384
C       8.79665040      9.11777542     35.18765515
C       3.91247673      9.12210969     35.18839870
C      10.31894553      5.79280542     35.65025852
C       2.38390546      5.79941064     35.65168842
C      10.32029224      7.24368325     35.69853216
C       2.38529028      7.25041824     35.69939010
C       6.34927204      2.95618062     36.17657852
C       8.79191153      3.48461133     36.32786263
C       3.90754729      3.48880286     36.32866338
C       6.35543384     10.04582854     36.41079721
C       8.79724753      9.50453775     36.52690562
C       3.91299763      9.50875523     36.52759198
C       7.55762024      3.02314121     36.92424806
C       5.14127957      3.02526942     36.92459123
C      10.31858980      5.29852980     37.01530450
C       2.38377841      5.30556326     37.01690600
C      10.32068608      7.64601782     37.09343460
C       2.38603986      7.65331081     37.09412095
C       7.56347713      9.92705134     37.15234675
C       5.14755572      9.92928336     37.15291871
C       9.57063611      4.16171793     37.34418301
C       3.13013130      4.16740180     37.34509815
C       9.57454917      8.75996446     37.49609628
C       3.13450173      8.76568725     37.49695423
C      10.31987298      6.44384151     37.90733741
C       2.38493454      6.45136809     37.90842414
C       7.55787434      3.42243920     38.30731087
C       5.14192752      3.42473610     38.30748246
C       7.56317222      9.43718785     38.50606788
C       5.14749219      9.43935499     38.50652545
C       8.79255948      4.13031393     38.56543760
C       3.90851285      4.13467416     38.56618115
C       8.79661229      8.71183328     38.71695050
C       3.91268001      8.71632328     38.71763685
C       6.35019949      3.76432755     38.97685031
C       9.57292297      6.40531321     39.09089966
C       3.13234193      6.41115280     39.09164321
C       6.35511622      9.05361782     39.15169928
C       8.79375372      5.23001198     39.42206601
C       3.90965628      5.23454090     39.42252358
C       8.79611680      7.55776219     39.49876620
C       3.91137142      7.56218730     39.49939536
C       6.35148267      4.92409548     39.87946452
C       6.35396009      7.83719292     39.97624060
C       7.56009767      5.65565299     40.04579125
C       5.14416355      5.65772928     40.04624882
C       7.56162224      7.09460508     40.09337854
C       5.14516723      7.09660352     40.09360733
C       6.37709543      6.40977725     42.09358902
C       7.24005246      7.54547311     42.37104809
C       5.00766378      6.80754396     42.37242080
C       6.80496580      5.11332405     42.39993220
C       5.02428159      8.18909941     42.82249818
C       6.40402949      8.64484673     42.82249818
C       8.49923235      7.34198297     42.94638529
C       4.11692147      5.89492033     42.94821557
C       8.11276674      4.90277450     42.99746155
C       5.88014937      4.16550718     42.99826229
C       8.94434305      5.99589328     43.26531164
C       4.56160022      4.54897339     43.26765669
C       6.85898637      9.50151415     43.83109707
C       4.15062716      8.60661690     43.83246978
C       7.99663267      3.82439743     43.96442155
C       6.61673231      3.36884476     43.96470753
C       8.97145498      8.23142993     43.99387763
C       3.20925645      6.32843829     43.99685183
C       8.16664756      9.29043254     44.42845483
C       3.22569639      7.65883896     44.43039950
C       9.69054349      6.05325100     44.51070305
C       3.92830684      4.15023341     44.51316249
C       5.95127053      9.93470769     44.87984773
C       4.62258299      9.49573944     44.88036249
C       9.70766948      7.43492324     44.96072324
C       3.09265231      5.25035969     44.96392623
C       8.71531463      3.87974374     45.16382717
C       6.00724763      2.98509306     45.16457072
C       9.57895772      5.01472587     45.44168661
C       4.63808278      3.38340480     45.44368848
C       8.06730916      9.59393534     45.84600698
C       3.12609119      7.96196543     45.84783726
C       6.69783940      9.99144252     46.12506755
C       3.98928962      9.09741473     46.12598269
C       9.61197735      7.72631863     46.32599801
C       2.99673149      5.54214439     46.32914381
C       8.08251674      3.48108163     46.40961895
C       6.75379109      3.04237292     46.40990493
C       8.77615765      8.82630217     46.77653297
C       3.01413699      6.92371281     46.77910680
C       9.47914925      5.31809890     46.85918157
C       4.53824890      3.68638853     46.86135503
C       9.49529698      6.64827896     47.29330120
C       3.73344148      4.74549496     47.29558905
C       6.08796087      9.60826180     47.32493073
C       4.70827649      9.15235875     47.32515952
C       8.55430741      4.37045073     47.45739727
C       5.84596090      3.47543669     47.45859839
C       8.14296591      8.42827592     48.02243915
C       3.76054070      6.98061635     48.02455541
C       6.82414996      8.81109329     48.29126158
C       4.59140555      8.07424122     48.29251989
C       8.58746679      7.08218623     48.34159429
C       4.20547354      5.63453964     48.34348176
C       7.68008127      4.78729342     48.46725447
C       6.30015550      4.33192243     48.46765485
C       5.89923190      7.86332832     48.88964887
C       7.69749948      6.16879696     48.91738906
C       5.46483129      5.43202276     48.91876177
C       6.32825840      6.56725145     49.19627803
I       0.37270637      5.78906808     10.29812978
I       6.13199551      0.11779096     10.37042585
I       6.17096096      6.80816685     10.49265426
I       0.76548624     12.07556517     10.50500866
I       9.92234154      0.25836928     12.29050437
I       9.78735364      7.27804598     12.69310886
I      12.15451424      3.33663620     13.73459559
I       3.38771999      5.78886045     13.84389765
I       6.46625733      2.98026567     13.85785353
I       3.56232128     12.83137642     14.32674849
I       6.15859924      9.42632622     14.37050363
I       0.26610086      9.67126445     14.39898737
I       8.41991663     12.84506701     16.41572757
I       0.25216376      6.35091421     16.79596832
I       6.68327976      6.02372864     16.83268832
I       0.10190475      0.50672043     16.84938963
I       6.26702153     10.18224129     19.45650964
I       2.96448685      0.09274562     20.14486665
I      12.59420002      9.42309498     20.38823675
I       9.30250249      6.57948863     20.48976011
I       9.01989816      0.28201312     20.76544610
I       6.04977041      3.39531756     20.81085993
I       2.75597659      6.20845425     21.01550815
I      12.21595438      3.19100987     21.08134105
I       6.07252460      7.05441575     23.18501957
I      12.46426861     12.62233218     23.19645882
I       6.11713096     12.94088814     23.87497808
I      12.53098122      6.44873379     23.91981995
I       9.06693113      7.01043717     26.28688725
I       6.27060427      3.38404067     26.29060501
I      12.39601872      9.80356354     26.35415005
I       2.68602427      0.55320354     26.38600837
I      11.94096020      3.27663120     26.94841922
I       5.46499645      9.85200616     26.98982931
I       9.38864065     12.91867176     27.29062445
I       3.01022393      6.48495220     27.36766782
I       5.87782440      0.30887522     30.28645026
I      12.25719398      6.60622096     30.32351344
I       6.02058761      5.49122319     30.67155269
I      12.29356767     11.76470448     30.74596503
N       8.08292329     10.04833307     10.17630174
N       7.71565455      3.56858459     10.24916978
N       1.90004528      2.49621581     10.25986548
N      10.42021505      9.89607557     10.33015968
N       2.29229155      8.84271789     10.40834697
N       9.99489833      3.49159288     10.79876866
N       3.81274449      3.24690121     11.37690847
N       3.72938867     10.06611137     11.77270661
N       9.60472294      9.32523648     15.93985467
N       9.61489944      3.96799937     16.26078289
N       2.93545651      3.00239121     16.26981990
N       3.25858897      8.44317335     16.50626925
N       2.53342759     10.14154586     17.93926440
N       9.69082299      9.72530010     18.24698029
N       9.06423772      3.32053191     18.42691973
N       2.85750020      3.40707459     18.57151188
N       8.81058751      9.50497897     22.41595863
N       2.86034606     10.21287966     22.50781583
N       2.61640227      2.50749270     22.88817097
N       8.81631735      4.11841415     23.07417321
N       9.28552895      2.11936780     24.18555378
N       2.77467798      8.76903528     24.34044126
N       9.06061687     10.78117529     24.34799116
N       2.85964730      4.30241305     24.35239528
N       8.41729945      9.33761640     28.91248166
N       2.07093680      2.83737746     29.06176390
N       8.65163845      2.67590639     29.55862783
N       2.22125933      9.07644412     29.85862222
N       8.73669672     10.94603332     30.58541512
N       3.09769609     11.11408365     30.59885624
N       2.53906850      4.46816648     30.67075195
N       9.44455423      4.53584081     30.74470671
