H5PbCI3N2 slab + C70-D5h@C60-Ih; termination=AI; gaps=2.00-2.00 Å
1.0
  12.7047439999999998    0.0000000000000000    0.0000000000000008
  -0.0000000000000008   12.9768600000000003    0.0000000000000008
  -0.0000000000000007   -0.0000000000000007   63.3305601761395778
H Pb C I N
100 16 150 52 40
direct
   0.2592245000000000    0.2500000000000000    0.1362697321629096 H+
   0.2592245000000000    0.7500000000000000    0.1362697321629096 H+
   0.7592245000000000    0.2500000000000000    0.1362697321629096 H+
   0.7592245000000000    0.7500000000000000    0.1362697321629096 H+
   0.1335015000000000    0.7500000000000000    0.1472976947152309 H+
   0.6335014999999999    0.2500000000000000    0.1472976947152309 H+
   0.1335015000000000    0.2500000000000000    0.1472976947152309 H+
   0.6335014999999999    0.7500000000000000    0.1472976947152309 H+
   0.3462020000000000    0.2500000000000000    0.1679732505337523 H+
   0.3462020000000000    0.7500000000000000    0.1679732505337523 H+
   0.8462019999999999    0.2500000000000000    0.1679732505337523 H+
   0.8462019999999999    0.7500000000000000    0.1679732505337523 H+
   0.1335015000000000    0.7500000000000000    0.1886488063522737 H+
   0.6335014999999999    0.2500000000000000    0.1886488063522737 H+
   0.1335015000000000    0.2500000000000000    0.1886488063522737 H+
   0.6335014999999999    0.7500000000000000    0.1886488063522737 H+
   0.7592245000000000    0.7500000000000000    0.1996767689045950 H+
   0.2592245000000000    0.2500000000000000    0.1996767689045950 H+
   0.2592245000000000    0.7500000000000000    0.1996767689045950 H+
   0.7592245000000000    0.2500000000000000    0.1996767689045950 H+
   0.7592245000000000    0.7500000000000000    0.2389528598963994 H+
   0.2592245000000000    0.2500000000000000    0.2389528598963994 H+
   0.2592245000000000    0.7500000000000000    0.2389528598963994 H+
   0.7592245000000000    0.2500000000000000    0.2389528598963994 H+
   0.6335014999999999    0.7500000000000000    0.2499808224487206 H+
   0.1335015000000000    0.2500000000000000    0.2499808224487207 H+
   0.1335015000000000    0.7500000000000000    0.2499808224487207 H+
   0.6335014999999999    0.2500000000000000    0.2499808224487207 H+
   0.3462020000000000    0.2500000000000000    0.2706563782672420 H+
   0.3462020000000000    0.7500000000000000    0.2706563782672420 H+
   0.8462019999999999    0.2500000000000000    0.2706563782672420 H+
   0.8462019999999999    0.7500000000000000    0.2706563782672420 H+
   0.1335015000000000    0.2500000000000000    0.2913319340857634 H+
   0.1335015000000000    0.7500000000000000    0.2913319340857634 H+
   0.6335014999999999    0.2500000000000000    0.2913319340857634 H+
   0.6335014999999999    0.7500000000000000    0.2913319340857634 H+
   0.2592245000000000    0.7500000000000000    0.3023598966380847 H+
   0.7592245000000000    0.2500000000000000    0.3023598966380847 H+
   0.2592245000000000    0.2500000000000000    0.3023598966380848 H+
   0.7592245000000000    0.7500000000000000    0.3023598966380848 H+
   0.2592245000000000    0.2500000000000000    0.3416359876298891 H+
   0.2592245000000000    0.7500000000000000    0.3416359876298891 H+
   0.7592245000000000    0.2500000000000000    0.3416359876298891 H+
   0.7592245000000000    0.7500000000000000    0.3416359876298891 H+
   0.6335014999999999    0.7500000000000000    0.3526639501822104 H+
   0.1335015000000000    0.7500000000000000    0.3526639501822104 H+
   0.6335014999999999    0.2500000000000000    0.3526639501822104 H+
   0.1335015000000000    0.2500000000000000    0.3526639501822105 H+
   0.3462020000000000    0.7500000000000000    0.3733395060007317 H+
   0.8462019999999999    0.2500000000000000    0.3733395060007317 H+
   0.8462019999999999    0.7500000000000000    0.3733395060007317 H+
   0.3462020000000000    0.2500000000000000    0.3733395060007318 H+
   0.1335015000000000    0.7500000000000000    0.3940150618192531 H+
   0.6335014999999999    0.2500000000000000    0.3940150618192531 H+
   0.6335014999999999    0.7500000000000000    0.3940150618192531 H+
   0.1335015000000000    0.2500000000000000    0.3940150618192532 H+
   0.7592245000000000    0.7500000000000000    0.4050430243715745 H+
   0.2592245000000000    0.2500000000000000    0.4050430243715745 H+
   0.2592245000000000    0.7500000000000000    0.4050430243715745 H+
   0.7592245000000000    0.2500000000000000    0.4050430243715745 H+
   0.2592245000000000    0.2500000000000000    0.4443191153633788 H+
   0.2592245000000000    0.7500000000000000    0.4443191153633788 H+
   0.7592245000000000    0.2500000000000000    0.4443191153633788 H+
   0.7592245000000000    0.7500000000000000    0.4443191153633788 H+
   0.6335014999999999    0.7500000000000000    0.4553470779157001 H+
   0.1335015000000000    0.2500000000000000    0.4553470779157002 H+
   0.1335015000000000    0.7500000000000000    0.4553470779157002 H+
   0.6335014999999999    0.2500000000000000    0.4553470779157002 H+
   0.8462019999999999    0.7500000000000000    0.4760226337342216 H+
   0.3462020000000000    0.2500000000000000    0.4760226337342217 H+
   0.3462020000000000    0.7500000000000000    0.4760226337342217 H+
   0.8462019999999999    0.2500000000000000    0.4760226337342217 H+
   0.1335015000000000    0.7500000000000000    0.4966981895527429 H+
   0.6335014999999999    0.2500000000000000    0.4966981895527429 H+
   0.6335014999999999    0.7500000000000000    0.4966981895527429 H+
   0.1335015000000000    0.2500000000000000    0.4966981895527429 H+
   0.2592245000000000    0.7500000000000000    0.5077261521050641 H+
   0.7592245000000000    0.2500000000000000    0.5077261521050641 H+
   0.7592245000000000    0.7500000000000000    0.5077261521050641 H+
   0.2592245000000000    0.2500000000000000    0.5077261521050642 H+
   0.2592245000000001    0.2500000000000001    0.5470022430968685 H+
   0.2592245000000001    0.7500000000000000    0.5470022430968685 H+
   0.7592245000000000    0.2500000000000001    0.5470022430968685 H+
   0.7592245000000000    0.7500000000000000    0.5470022430968685 H+
   0.1335015000000000    0.2500000000000001    0.5580302056491900 H+
   0.1335015000000000    0.7500000000000000    0.5580302056491900 H+
   0.6335014999999999    0.2500000000000001    0.5580302056491900 H+
   0.6335014999999999    0.7500000000000000    0.5580302056491900 H+
   0.3462020000000001    0.2500000000000001    0.5787057614677114 H+
   0.3462020000000001    0.7500000000000000    0.5787057614677114 H+
   0.8462019999999999    0.2500000000000001    0.5787057614677114 H+
   0.8462019999999999    0.7500000000000000    0.5787057614677114 H+
   0.1335015000000000    0.2500000000000001    0.5993813172862327 H+
   0.1335015000000000    0.7500000000000000    0.5993813172862327 H+
   0.6335014999999999    0.2500000000000001    0.5993813172862327 H+
   0.6335014999999999    0.7500000000000000    0.5993813172862327 H+
   0.2592245000000001    0.2500000000000001    0.6104092798385539 H+
   0.7592245000000000    0.7500000000000000    0.6104092798385539 H+
   0.2592245000000001    0.7500000000000000    0.6104092798385540 H+
   0.7592245000000000    0.2500000000000001    0.6104092798385540 H+
   0.4824370000000001    0.5000000000000000    0.2193148144004972 Pb2+
   0.9824369999999999    0.0000000000000000    0.2193148144004972 Pb2+
   0.9824369999999999    0.5000000000000000    0.2193148144004972 Pb2+
   0.4824370000000000    0.0000000000000000    0.2193148144004972 Pb2+
   0.4824370000000000    0.0000000000000000    0.3219979421339869 Pb2+
   0.4824370000000001    0.5000000000000000    0.3219979421339869 Pb2+
   0.9824369999999999    0.0000000000000000    0.3219979421339869 Pb2+
   0.9824369999999999    0.5000000000000000    0.3219979421339869 Pb2+
   0.4824370000000001    0.5000000000000000    0.4246810698674767 Pb2+
   0.9824369999999999    0.0000000000000000    0.4246810698674767 Pb2+
   0.9824369999999999    0.5000000000000000    0.4246810698674767 Pb2+
   0.4824370000000000    0.0000000000000000    0.4246810698674768 Pb2+
   0.4824370000000001    0.0000000000000000    0.5273641976009663 Pb2+
   0.4824370000000002    0.5000000000000000    0.5273641976009663 Pb2+
   0.9824369999999999    0.0000000000000000    0.5273641976009663 Pb2+
   0.9824369999999999    0.5000000000000000    0.5273641976009664 Pb2+
   0.5000676349165318    0.4541445702167164    0.6419896100051821 C
   0.5000120341405540    0.5647338458388622    0.6426464778863330 C
   0.4068426516543741    0.4024448705590180    0.6473834441695244 C
   0.5929460653969099    0.4022912598434829    0.6473978069471071 C
   0.5937176213704107    0.6134441020083053    0.6486246020663815 C
   0.4064564928403909    0.6135209073660730    0.6486246020663815 C
   0.3141683445707367    0.4548693741754553    0.6515758472686215 C
   0.6852029858334805    0.4544301668383182    0.6517321570714634 C
   0.3139634595195306    0.5604342371700471    0.6521868764979125 C
   0.6863287111334158    0.5600949513663165    0.6523399775951243 C
   0.5928988428200519    0.3121076018457083    0.6596698836185183 C
   0.4059370444949539    0.3122462988995410    0.6596966228321032 C
   0.5936627822488982    0.6990500115465140    0.6622293611428631 C
   0.4063856589751040    0.6991581355938569    0.6622499885362001 C
   0.2560244043327436    0.3988156309837279    0.6660112027168026 C
   0.7439135969937685    0.3992548383208649    0.6661595671533221 C
   0.2553716664558530    0.6109550118701671    0.6673328838454268 C
   0.4994141353851758    0.2691383597486217    0.6673423571668112 C
   0.7455115480622825    0.6104539128369650    0.6674401462907787 C
   0.5000912462049607    0.7394757286402487    0.6704656501090315 C
   0.3132475043220075    0.3123156474264574    0.6710876806147690 C
   0.6852502084103385    0.3134639993775458    0.6711556746150277 C
   0.3136801240583832    0.6953126479238811    0.6736410463188659 C
   0.6860057696400649    0.6939793665676826    0.6736552563009424 C
   0.8044735051961690    0.4499911154325852    0.6810450581627665 C
   0.1964409371550500    0.4489896630492660    0.6811682113407632 C
   0.1964881597319079    0.5553710490220668    0.6817208726866861 C
   0.8053235115796114    0.5562651230411284    0.6818802383996521 C
   0.4993433015198889    0.2316178239545235    0.6887285329875057 C
   0.3131058365914338    0.2767137542103790    0.6914490569753846 C
   0.6850377068144778    0.2778695629923185    0.6915691542432574 C
   0.5001384687818186    0.7701382171004770    0.6922923353740987 C
   0.3142231836922491    0.7241332991638576    0.6944461408294844 C
   0.6857696567557753    0.7229387148614916    0.6945281920163134 C
   0.4057329210982133    0.2409112722444026    0.7002616905909369 C
   0.5928440036985396    0.2408113507109962    0.7002789564831374 C
   0.8040881080366512    0.4132721889549936    0.7015106410586102 C
   0.1962436686484985    0.4134802345357427    0.7017442653875888 C
   0.1970700637435118    0.5850701149363171    0.7026854857057768 C
   0.8051422378168340    0.5845921320787538    0.7028891621155405 C
   0.4067398283015383    0.7571305213636038    0.7036849211118266 C
   0.5935127363192046    0.7572229860661591    0.7036911857275807 C
   0.7436302615326209    0.3282128651181794    0.7067419008043564 C
   0.2557570636153707    0.3273575666195442    0.7068176873754313 C
   0.7443622114739186    0.6679020833978709    0.7090504881075220 C
   0.2569772340690217    0.6687342657208675    0.7090836447323672 C
   0.8050950152399763    0.4965895971049621    0.7151786574746583 C
   0.1959999392195544    0.4973524309010422    0.7152070774388114 C
   0.5929300706531354    0.2707259190368470    0.7216383930902471 C
   0.4059218114056449    0.2710189724893000    0.7216414490003711 C
   0.5935287310629791    0.7200641065683451    0.7245295896585507 C
   0.4074329338650979    0.7200872227439840    0.7245515922114434 C
   0.6851085406797648    0.3246678877315081    0.7250159377547831 C
   0.3136565127699542    0.3244680446646953    0.7252084600925943 C
   0.6856912063458340    0.6653898770840940    0.7273291089231347 C
   0.3148058493583183    0.6656135820096308    0.7274822100203464 C
   0.4994925857951171    0.2930039468879604    0.7323803755625782 C
   0.7452282126011353    0.4936844158053257    0.7333515437999810 C
   0.2550251136740732    0.4943085525475731    0.7334999082365006 C
   0.5005634719735398    0.6940181420881089    0.7351721022563460 C
   0.6853994926855667    0.4082783493339296    0.7383285518234116 C
   0.3138377865327313    0.4079934983954129    0.7384753883048693 C
   0.6863759337102737    0.5780502543729761    0.7395617643539464 C
   0.3139246151417927    0.5781427190755312    0.7396644429341124 C
   0.5000204123396739    0.3806142525589780    0.7462393863613755 C
   0.5001384687818187    0.6028322860239301    0.7479873669522957 C
   0.5931745617365448    0.4379080667212638    0.7480947821931538 C
   0.4069051073205409    0.4380780824646716    0.7481184654966148 C
   0.4066065387700846    0.5462707326512344    0.7489568544391305 C
   0.5935919483836115    0.5459776791987814    0.7489932197696060 C
   0.5018938793453844    0.4945839133234077    0.7805735499362342 C
   0.5664522421506484    0.5782017389761465    0.7849932015818460 C
   0.3993102371248093    0.5241285595244147    0.7851747844853925 C
   0.5352909324461790    0.3955616851803901    0.7851905743030920 C
   0.5042788984768206    0.6592998829416359    0.7919898603713407 C
   0.4005220846834850    0.6259866751240283    0.7921224403923707 C
   0.6652815996331762    0.5638223480449043    0.7940489342708501 C
   0.3283683010653342    0.4549904337759672    0.7941625937344641 C
   0.6338522721315751    0.3802263696649264    0.7942746197686611 C
   0.4656633013817514    0.3264076162839082    0.7943741228439927 C
   0.6984031711500835    0.4639292254405146    0.7985964017683586 C
   0.3625917989177899    0.3554978827659385    0.7987353793879394 C
   0.5398404497367281    0.7258107107536028    0.8076805833530456 C
   0.3307451778839461    0.6578742997882381    0.8077437426238443 C
   0.6244621498670101    0.3013708951895911    0.8090037973001025 C
   0.5203280755794841    0.2679573783989345    0.8090811129591837 C
   0.2588824819492623    0.4870009535396080    0.8097506829011212 C
   0.7010243173534230    0.6299631619629091    0.8097506829011212 C
   0.6386223103944476    0.7110998352028145    0.8165134890457186 C
   0.2602279991434694    0.5884432186946609    0.8165340430325518 C
   0.7535639479040268    0.4685527383704530    0.8174878296930835 C
   0.3148771672416223    0.3266387919304052    0.8175462247947488 C
   0.4703620944074117    0.7581759655610060    0.8233206700228169 C
   0.3668183377996438    0.7244621861490373    0.8233553803979328 C
   0.2511133584627914    0.4074752025489985    0.8243233234467469 C
   0.7554210737540242    0.5700567832241387    0.8243534057718470 C
   0.6803387716234185    0.3049773681345100    0.8278572479908775 C
   0.4731013041467028    0.2382891728006619    0.8279297994808250 C
   0.7444493072233487    0.3890881027806417    0.8321362885874913 C
   0.3699666987583534    0.2679035702743189    0.8321884222097239 C
   0.6301766964174953    0.7328775111197929    0.8378791541801602 C
   0.2543879252702769    0.6105982157817836    0.8379408161406598 C
   0.5267347187200305    0.7619750848780057    0.8420889101456609 C
   0.3195603541677029    0.6944472170810193    0.8421298820002091 C
   0.7481404890370082    0.5928435275521194    0.8457348607239884 C
   0.2435654344747126    0.4291133759206770    0.8457648069299705 C
   0.6331601755415139    0.2760099967519105    0.8466995369139680 C
   0.5291278801642911    0.2427353182087190    0.8467138294213686 C
   0.6852981186594549    0.6742957422635365    0.8525372775319531 C
   0.2458323900701972    0.5308485964208597    0.8525640929982190 C
   0.3629853440376286    0.2905361975046350    0.8535588515132989 C
   0.7372392892174763    0.4114437178138624    0.8535856669795648 C
   0.7392857238406375    0.5131629951660106    0.8603186630372983 C
   0.2995757258666525    0.3712490487259628    0.8603565041521303 C
   0.3754763304360952    0.6988163039402441    0.8609517530555847 C
   0.4794536652017543    0.7327997882731259    0.8609629148232689 C
   0.6683356454683381    0.3411722999593120    0.8625923967860525 C
   0.4615466837230248    0.2750547364655238    0.8626034224346187 C
   0.6374654234473357    0.6443505244681683    0.8712328300457313 C
   0.3025273142654428    0.5354953597750146    0.8712706711605632 C
   0.3673611586545937    0.6192520236752185    0.8754677680480805 C
   0.5345194483060813    0.6738493341185769    0.8755151375011795 C
   0.6707050585001946    0.5450658986804200    0.8760393322249854 C
   0.3356488857823501    0.4361722047128502    0.8761671480768820 C
   0.6008100881647042    0.3734372457936663    0.8785041772155531 C
   0.4970844865705281    0.3401625672504749    0.8785326261112361 C
   0.4656001984573634    0.6037938130603241    0.8845612057327984 C
   0.6008175519514597    0.4756806541374413    0.8852054575187690 C
   0.4336755469256206    0.4205519054262739    0.8852986991146680 C
   0.4978485069238702    0.5044321287237433    0.8894688444168014 C
   0.7599155000000001    0.2500000000000000    0.1679732505337523 C2+
   0.2599155000000000    0.2500000000000000    0.1679732505337523 C2+
   0.2599155000000000    0.7500000000000000    0.1679732505337523 C2+
   0.7599155000000001    0.7500000000000000    0.1679732505337523 C2+
   0.2599155000000000    0.2500000000000000    0.2706563782672420 C2+
   0.2599155000000000    0.7500000000000000    0.2706563782672420 C2+
   0.7599155000000001    0.2500000000000000    0.2706563782672420 C2+
   0.7599155000000001    0.7500000000000000    0.2706563782672420 C2+
   0.2599155000000000    0.7500000000000000    0.3733395060007317 C2+
   0.7599155000000001    0.2500000000000000    0.3733395060007317 C2+
   0.7599155000000001    0.7500000000000000    0.3733395060007317 C2+
   0.2599155000000000    0.2500000000000000    0.3733395060007318 C2+
   0.7599155000000001    0.7500000000000000    0.4760226337342216 C2+
   0.2599155000000000    0.2500000000000000    0.4760226337342217 C2+
   0.2599155000000000    0.7500000000000000    0.4760226337342217 C2+
   0.7599155000000001    0.2500000000000000    0.4760226337342217 C2+
   0.2599155000000001    0.2500000000000001    0.5787057614677114 C2+
   0.2599155000000001    0.7500000000000000    0.5787057614677114 C2+
   0.7599155000000001    0.2500000000000001    0.5787057614677114 C2+
   0.7599155000000001    0.7500000000000000    0.5787057614677114 C2+
   0.4918860000000001    0.5000000000000000    0.1679732505337523 I-
   0.9918859999999999    0.0000000000000000    0.1679732505337523 I-
   0.4918860000000000    0.0000000000000000    0.1679732505337523 I-
   0.9918859999999999    0.5000000000000000    0.1679732505337523 I-
   0.2313650000000000    0.5000000000000000    0.2193148144004972 I-
   0.7313649999999999    0.0000000000000000    0.2193148144004972 I-
   0.7313649999999999    0.5000000000000000    0.2193148144004972 I-
   0.4602915000000000    0.2500000000000000    0.2193148144004972 I-
   0.4602915000000001    0.7500000000000000    0.2193148144004972 I-
   0.9602915000000000    0.2500000000000000    0.2193148144004972 I-
   0.9602915000000000    0.7500000000000000    0.2193148144004972 I-
   0.2313650000000000    0.0000000000000000    0.2193148144004972 I-
   0.4918860000000000    0.0000000000000000    0.2706563782672420 I-
   0.4918860000000001    0.5000000000000000    0.2706563782672420 I-
   0.9918859999999999    0.0000000000000000    0.2706563782672420 I-
   0.9918859999999999    0.5000000000000000    0.2706563782672420 I-
   0.2313650000000000    0.5000000000000000    0.3219979421339869 I-
   0.7313649999999999    0.0000000000000000    0.3219979421339869 I-
   0.4602915000000000    0.2500000000000000    0.3219979421339869 I-
   0.2313650000000000    0.0000000000000000    0.3219979421339869 I-
   0.7313649999999999    0.5000000000000000    0.3219979421339869 I-
   0.4602915000000001    0.7500000000000000    0.3219979421339869 I-
   0.9602915000000000    0.2500000000000000    0.3219979421339869 I-
   0.9602915000000000    0.7500000000000000    0.3219979421339869 I-
   0.4918860000000001    0.5000000000000000    0.3733395060007317 I-
   0.9918859999999999    0.0000000000000000    0.3733395060007317 I-
   0.9918859999999999    0.5000000000000000    0.3733395060007317 I-
   0.4918860000000000    0.0000000000000000    0.3733395060007318 I-
   0.7313649999999999    0.5000000000000000    0.4246810698674767 I-
   0.4602915000000001    0.7500000000000000    0.4246810698674767 I-
   0.9602915000000000    0.2500000000000000    0.4246810698674767 I-
   0.9602915000000000    0.7500000000000000    0.4246810698674767 I-
   0.2313650000000000    0.0000000000000000    0.4246810698674768 I-
   0.2313650000000000    0.5000000000000000    0.4246810698674768 I-
   0.7313649999999999    0.0000000000000000    0.4246810698674768 I-
   0.4602915000000000    0.2500000000000000    0.4246810698674768 I-
   0.9918859999999999    0.5000000000000000    0.4760226337342216 I-
   0.4918860000000000    0.0000000000000000    0.4760226337342217 I-
   0.4918860000000001    0.5000000000000000    0.4760226337342217 I-
   0.9918859999999999    0.0000000000000000    0.4760226337342217 I-
   0.2313650000000000    0.0000000000000000    0.5273641976009663 I-
   0.2313650000000000    0.5000000000000000    0.5273641976009663 I-
   0.7313649999999999    0.0000000000000000    0.5273641976009663 I-
   0.4602915000000001    0.2500000000000001    0.5273641976009663 I-
   0.7313649999999999    0.5000000000000000    0.5273641976009664 I-
   0.4602915000000001    0.7500000000000000    0.5273641976009664 I-
   0.9602915000000000    0.2500000000000001    0.5273641976009664 I-
   0.9602915000000000    0.7500000000000000    0.5273641976009664 I-
   0.4918860000000000    0.0000000000000000    0.5787057614677114 I-
   0.4918860000000002    0.5000000000000000    0.5787057614677114 I-
   0.9918859999999999    0.0000000000000000    0.5787057614677114 I-
   0.9918859999999999    0.5000000000000000    0.5787057614677114 I-
   0.2133540000000001    0.7500000000000000    0.1494726260437540 N3-
   0.7133540000000000    0.2500000000000000    0.1494726260437540 N3-
   0.7133540000000000    0.7500000000000000    0.1494726260437540 N3-
   0.2133540000000001    0.2500000000000000    0.1494726260437540 N3-
   0.2133540000000001    0.2500000000000000    0.1864738750237506 N3-
   0.2133540000000001    0.7500000000000000    0.1864738750237506 N3-
   0.7133540000000000    0.2500000000000000    0.1864738750237506 N3-
   0.7133540000000000    0.7500000000000000    0.1864738750237506 N3-
   0.2133540000000001    0.2500000000000000    0.2521557537772437 N3-
   0.2133540000000001    0.7500000000000000    0.2521557537772437 N3-
   0.7133540000000000    0.2500000000000000    0.2521557537772437 N3-
   0.7133540000000000    0.7500000000000000    0.2521557537772437 N3-
   0.2133540000000001    0.2500000000000000    0.2891570027572404 N3-
   0.2133540000000001    0.7500000000000000    0.2891570027572404 N3-
   0.7133540000000000    0.2500000000000000    0.2891570027572404 N3-
   0.7133540000000000    0.7500000000000000    0.2891570027572404 N3-
   0.7133540000000000    0.7500000000000000    0.3548388815107334 N3-
   0.2133540000000001    0.2500000000000000    0.3548388815107335 N3-
   0.2133540000000001    0.7500000000000000    0.3548388815107335 N3-
   0.7133540000000000    0.2500000000000000    0.3548388815107335 N3-
   0.2133540000000001    0.2500000000000000    0.3918401304907301 N3-
   0.2133540000000001    0.7500000000000000    0.3918401304907301 N3-
   0.7133540000000000    0.2500000000000000    0.3918401304907301 N3-
   0.7133540000000000    0.7500000000000000    0.3918401304907301 N3-
   0.2133540000000001    0.2500000000000000    0.4575220092442233 N3-
   0.2133540000000001    0.7500000000000000    0.4575220092442233 N3-
   0.7133540000000000    0.2500000000000000    0.4575220092442233 N3-
   0.7133540000000000    0.7500000000000000    0.4575220092442233 N3-
   0.2133540000000001    0.2500000000000000    0.4945232582242199 N3-
   0.2133540000000001    0.7500000000000000    0.4945232582242199 N3-
   0.7133540000000000    0.2500000000000000    0.4945232582242199 N3-
   0.7133540000000000    0.7500000000000000    0.4945232582242199 N3-
   0.2133540000000001    0.2500000000000001    0.5602051369777128 N3-
   0.2133540000000001    0.7500000000000000    0.5602051369777128 N3-
   0.7133540000000000    0.2500000000000001    0.5602051369777128 N3-
   0.7133540000000000    0.7500000000000000    0.5602051369777129 N3-
   0.2133540000000001    0.2500000000000001    0.5972063859577096 N3-
   0.2133540000000001    0.7500000000000000    0.5972063859577096 N3-
   0.7133540000000000    0.2500000000000001    0.5972063859577096 N3-
   0.7133540000000000    0.7500000000000000    0.5972063859577096 N3-
