H5PbCI3N2 slab (AI termination); vacuum=15.00 Å
1.0
  12.7047439999999998    0.0000000000000000    0.0000000000000008
  -0.0000000000000008   12.9768600000000003    0.0000000000000008
  -0.0000000000000007   -0.0000000000000007   63.3305601761395778
H Pb C I N
100 16 20 52 40
direct
   0.2592245000000000    0.2500000000000000    0.1362697321629096 H+
   0.2592245000000000    0.7500000000000000    0.1362697321629096 H+
   0.7592245000000000    0.2500000000000000    0.1362697321629096 H+
   0.7592245000000000    0.7500000000000000    0.1362697321629096 H+
   0.1335015000000000    0.7500000000000000    0.1472976947152309 H+
   0.6335014999999999    0.2500000000000000    0.1472976947152309 H+
   0.1335015000000000    0.2500000000000000    0.1472976947152309 H+
   0.6335014999999999    0.7500000000000000    0.1472976947152309 H+
   0.3462020000000000    0.2500000000000000    0.1679732505337523 H+
   0.3462020000000000    0.7500000000000000    0.1679732505337523 H+
   0.8462019999999999    0.2500000000000000    0.1679732505337523 H+
   0.8462019999999999    0.7500000000000000    0.1679732505337523 H+
   0.1335015000000000    0.7500000000000000    0.1886488063522737 H+
   0.6335014999999999    0.2500000000000000    0.1886488063522737 H+
   0.1335015000000000    0.2500000000000000    0.1886488063522737 H+
   0.6335014999999999    0.7500000000000000    0.1886488063522737 H+
   0.7592245000000000    0.7500000000000000    0.1996767689045950 H+
   0.2592245000000000    0.2500000000000000    0.1996767689045950 H+
   0.2592245000000000    0.7500000000000000    0.1996767689045950 H+
   0.7592245000000000    0.2500000000000000    0.1996767689045950 H+
   0.7592245000000000    0.7500000000000000    0.2389528598963994 H+
   0.2592245000000000    0.2500000000000000    0.2389528598963994 H+
   0.2592245000000000    0.7500000000000000    0.2389528598963994 H+
   0.7592245000000000    0.2500000000000000    0.2389528598963994 H+
   0.6335014999999999    0.7500000000000000    0.2499808224487206 H+
   0.1335015000000000    0.2500000000000000    0.2499808224487207 H+
   0.1335015000000000    0.7500000000000000    0.2499808224487207 H+
   0.6335014999999999    0.2500000000000000    0.2499808224487207 H+
   0.3462020000000000    0.2500000000000000    0.2706563782672420 H+
   0.3462020000000000    0.7500000000000000    0.2706563782672420 H+
   0.8462019999999999    0.2500000000000000    0.2706563782672420 H+
   0.8462019999999999    0.7500000000000000    0.2706563782672420 H+
   0.1335015000000000    0.2500000000000000    0.2913319340857634 H+
   0.1335015000000000    0.7500000000000000    0.2913319340857634 H+
   0.6335014999999999    0.2500000000000000    0.2913319340857634 H+
   0.6335014999999999    0.7500000000000000    0.2913319340857634 H+
   0.2592245000000000    0.7500000000000000    0.3023598966380847 H+
   0.7592245000000000    0.2500000000000000    0.3023598966380847 H+
   0.2592245000000000    0.2500000000000000    0.3023598966380848 H+
   0.7592245000000000    0.7500000000000000    0.3023598966380848 H+
   0.2592245000000000    0.2500000000000000    0.3416359876298891 H+
   0.2592245000000000    0.7500000000000000    0.3416359876298891 H+
   0.7592245000000000    0.2500000000000000    0.3416359876298891 H+
   0.7592245000000000    0.7500000000000000    0.3416359876298891 H+
   0.6335014999999999    0.7500000000000000    0.3526639501822104 H+
   0.1335015000000000    0.7500000000000000    0.3526639501822104 H+
   0.6335014999999999    0.2500000000000000    0.3526639501822104 H+
   0.1335015000000000    0.2500000000000000    0.3526639501822105 H+
   0.3462020000000000    0.7500000000000000    0.3733395060007317 H+
   0.8462019999999999    0.2500000000000000    0.3733395060007317 H+
   0.8462019999999999    0.7500000000000000    0.3733395060007317 H+
   0.3462020000000000    0.2500000000000000    0.3733395060007318 H+
   0.1335015000000000    0.7500000000000000    0.3940150618192531 H+
   0.6335014999999999    0.2500000000000000    0.3940150618192531 H+
   0.6335014999999999    0.7500000000000000    0.3940150618192531 H+
   0.1335015000000000    0.2500000000000000    0.3940150618192532 H+
   0.7592245000000000    0.7500000000000000    0.4050430243715745 H+
   0.2592245000000000    0.2500000000000000    0.4050430243715745 H+
   0.2592245000000000    0.7500000000000000    0.4050430243715745 H+
   0.7592245000000000    0.2500000000000000    0.4050430243715745 H+
   0.2592245000000000    0.2500000000000000    0.4443191153633788 H+
   0.2592245000000000    0.7500000000000000    0.4443191153633788 H+
   0.7592245000000000    0.2500000000000000    0.4443191153633788 H+
   0.7592245000000000    0.7500000000000000    0.4443191153633788 H+
   0.6335014999999999    0.7500000000000000    0.4553470779157001 H+
   0.1335015000000000    0.2500000000000000    0.4553470779157002 H+
   0.1335015000000000    0.7500000000000000    0.4553470779157002 H+
   0.6335014999999999    0.2500000000000000    0.4553470779157002 H+
   0.8462019999999999    0.7500000000000000    0.4760226337342216 H+
   0.3462020000000000    0.2500000000000000    0.4760226337342217 H+
   0.3462020000000000    0.7500000000000000    0.4760226337342217 H+
   0.8462019999999999    0.2500000000000000    0.4760226337342217 H+
   0.1335015000000000    0.7500000000000000    0.4966981895527429 H+
   0.6335014999999999    0.2500000000000000    0.4966981895527429 H+
   0.6335014999999999    0.7500000000000000    0.4966981895527429 H+
   0.1335015000000000    0.2500000000000000    0.4966981895527429 H+
   0.2592245000000000    0.7500000000000000    0.5077261521050641 H+
   0.7592245000000000    0.2500000000000000    0.5077261521050641 H+
   0.7592245000000000    0.7500000000000000    0.5077261521050641 H+
   0.2592245000000000    0.2500000000000000    0.5077261521050642 H+
   0.2592245000000001    0.2500000000000001    0.5470022430968685 H+
   0.2592245000000001    0.7500000000000000    0.5470022430968685 H+
   0.7592245000000000    0.2500000000000001    0.5470022430968685 H+
   0.7592245000000000    0.7500000000000000    0.5470022430968685 H+
   0.1335015000000000    0.2500000000000001    0.5580302056491900 H+
   0.1335015000000000    0.7500000000000000    0.5580302056491900 H+
   0.6335014999999999    0.2500000000000001    0.5580302056491900 H+
   0.6335014999999999    0.7500000000000000    0.5580302056491900 H+
   0.3462020000000001    0.2500000000000001    0.5787057614677114 H+
   0.3462020000000001    0.7500000000000000    0.5787057614677114 H+
   0.8462019999999999    0.2500000000000001    0.5787057614677114 H+
   0.8462019999999999    0.7500000000000000    0.5787057614677114 H+
   0.1335015000000000    0.2500000000000001    0.5993813172862327 H+
   0.1335015000000000    0.7500000000000000    0.5993813172862327 H+
   0.6335014999999999    0.2500000000000001    0.5993813172862327 H+
   0.6335014999999999    0.7500000000000000    0.5993813172862327 H+
   0.2592245000000001    0.2500000000000001    0.6104092798385539 H+
   0.7592245000000000    0.7500000000000000    0.6104092798385539 H+
   0.2592245000000001    0.7500000000000000    0.6104092798385540 H+
   0.7592245000000000    0.2500000000000001    0.6104092798385540 H+
   0.4824370000000001    0.5000000000000000    0.2193148144004972 Pb2+
   0.9824369999999999    0.0000000000000000    0.2193148144004972 Pb2+
   0.9824369999999999    0.5000000000000000    0.2193148144004972 Pb2+
   0.4824370000000000    0.0000000000000000    0.2193148144004972 Pb2+
   0.4824370000000000    0.0000000000000000    0.3219979421339869 Pb2+
   0.4824370000000001    0.5000000000000000    0.3219979421339869 Pb2+
   0.9824369999999999    0.0000000000000000    0.3219979421339869 Pb2+
   0.9824369999999999    0.5000000000000000    0.3219979421339869 Pb2+
   0.4824370000000001    0.5000000000000000    0.4246810698674767 Pb2+
   0.9824369999999999    0.0000000000000000    0.4246810698674767 Pb2+
   0.9824369999999999    0.5000000000000000    0.4246810698674767 Pb2+
   0.4824370000000000    0.0000000000000000    0.4246810698674768 Pb2+
   0.4824370000000001    0.0000000000000000    0.5273641976009663 Pb2+
   0.4824370000000002    0.5000000000000000    0.5273641976009663 Pb2+
   0.9824369999999999    0.0000000000000000    0.5273641976009663 Pb2+
   0.9824369999999999    0.5000000000000000    0.5273641976009664 Pb2+
   0.7599155000000001    0.2500000000000000    0.1679732505337523 C2+
   0.2599155000000000    0.2500000000000000    0.1679732505337523 C2+
   0.2599155000000000    0.7500000000000000    0.1679732505337523 C2+
   0.7599155000000001    0.7500000000000000    0.1679732505337523 C2+
   0.2599155000000000    0.2500000000000000    0.2706563782672420 C2+
   0.2599155000000000    0.7500000000000000    0.2706563782672420 C2+
   0.7599155000000001    0.2500000000000000    0.2706563782672420 C2+
   0.7599155000000001    0.7500000000000000    0.2706563782672420 C2+
   0.2599155000000000    0.7500000000000000    0.3733395060007317 C2+
   0.7599155000000001    0.2500000000000000    0.3733395060007317 C2+
   0.7599155000000001    0.7500000000000000    0.3733395060007317 C2+
   0.2599155000000000    0.2500000000000000    0.3733395060007318 C2+
   0.7599155000000001    0.7500000000000000    0.4760226337342216 C2+
   0.2599155000000000    0.2500000000000000    0.4760226337342217 C2+
   0.2599155000000000    0.7500000000000000    0.4760226337342217 C2+
   0.7599155000000001    0.2500000000000000    0.4760226337342217 C2+
   0.2599155000000001    0.2500000000000001    0.5787057614677114 C2+
   0.2599155000000001    0.7500000000000000    0.5787057614677114 C2+
   0.7599155000000001    0.2500000000000001    0.5787057614677114 C2+
   0.7599155000000001    0.7500000000000000    0.5787057614677114 C2+
   0.4918860000000001    0.5000000000000000    0.1679732505337523 I-
   0.9918859999999999    0.0000000000000000    0.1679732505337523 I-
   0.4918860000000000    0.0000000000000000    0.1679732505337523 I-
   0.9918859999999999    0.5000000000000000    0.1679732505337523 I-
   0.2313650000000000    0.5000000000000000    0.2193148144004972 I-
   0.7313649999999999    0.0000000000000000    0.2193148144004972 I-
   0.7313649999999999    0.5000000000000000    0.2193148144004972 I-
   0.4602915000000000    0.2500000000000000    0.2193148144004972 I-
   0.4602915000000001    0.7500000000000000    0.2193148144004972 I-
   0.9602915000000000    0.2500000000000000    0.2193148144004972 I-
   0.9602915000000000    0.7500000000000000    0.2193148144004972 I-
   0.2313650000000000    0.0000000000000000    0.2193148144004972 I-
   0.4918860000000000    0.0000000000000000    0.2706563782672420 I-
   0.4918860000000001    0.5000000000000000    0.2706563782672420 I-
   0.9918859999999999    0.0000000000000000    0.2706563782672420 I-
   0.9918859999999999    0.5000000000000000    0.2706563782672420 I-
   0.2313650000000000    0.5000000000000000    0.3219979421339869 I-
   0.7313649999999999    0.0000000000000000    0.3219979421339869 I-
   0.4602915000000000    0.2500000000000000    0.3219979421339869 I-
   0.2313650000000000    0.0000000000000000    0.3219979421339869 I-
   0.7313649999999999    0.5000000000000000    0.3219979421339869 I-
   0.4602915000000001    0.7500000000000000    0.3219979421339869 I-
   0.9602915000000000    0.2500000000000000    0.3219979421339869 I-
   0.9602915000000000    0.7500000000000000    0.3219979421339869 I-
   0.4918860000000001    0.5000000000000000    0.3733395060007317 I-
   0.9918859999999999    0.0000000000000000    0.3733395060007317 I-
   0.9918859999999999    0.5000000000000000    0.3733395060007317 I-
   0.4918860000000000    0.0000000000000000    0.3733395060007318 I-
   0.7313649999999999    0.5000000000000000    0.4246810698674767 I-
   0.4602915000000001    0.7500000000000000    0.4246810698674767 I-
   0.9602915000000000    0.2500000000000000    0.4246810698674767 I-
   0.9602915000000000    0.7500000000000000    0.4246810698674767 I-
   0.2313650000000000    0.0000000000000000    0.4246810698674768 I-
   0.2313650000000000    0.5000000000000000    0.4246810698674768 I-
   0.7313649999999999    0.0000000000000000    0.4246810698674768 I-
   0.4602915000000000    0.2500000000000000    0.4246810698674768 I-
   0.9918859999999999    0.5000000000000000    0.4760226337342216 I-
   0.4918860000000000    0.0000000000000000    0.4760226337342217 I-
   0.4918860000000001    0.5000000000000000    0.4760226337342217 I-
   0.9918859999999999    0.0000000000000000    0.4760226337342217 I-
   0.2313650000000000    0.0000000000000000    0.5273641976009663 I-
   0.2313650000000000    0.5000000000000000    0.5273641976009663 I-
   0.7313649999999999    0.0000000000000000    0.5273641976009663 I-
   0.4602915000000001    0.2500000000000001    0.5273641976009663 I-
   0.7313649999999999    0.5000000000000000    0.5273641976009664 I-
   0.4602915000000001    0.7500000000000000    0.5273641976009664 I-
   0.9602915000000000    0.2500000000000001    0.5273641976009664 I-
   0.9602915000000000    0.7500000000000000    0.5273641976009664 I-
   0.4918860000000000    0.0000000000000000    0.5787057614677114 I-
   0.4918860000000002    0.5000000000000000    0.5787057614677114 I-
   0.9918859999999999    0.0000000000000000    0.5787057614677114 I-
   0.9918859999999999    0.5000000000000000    0.5787057614677114 I-
   0.2133540000000001    0.7500000000000000    0.1494726260437540 N3-
   0.7133540000000000    0.2500000000000000    0.1494726260437540 N3-
   0.7133540000000000    0.7500000000000000    0.1494726260437540 N3-
   0.2133540000000001    0.2500000000000000    0.1494726260437540 N3-
   0.2133540000000001    0.2500000000000000    0.1864738750237506 N3-
   0.2133540000000001    0.7500000000000000    0.1864738750237506 N3-
   0.7133540000000000    0.2500000000000000    0.1864738750237506 N3-
   0.7133540000000000    0.7500000000000000    0.1864738750237506 N3-
   0.2133540000000001    0.2500000000000000    0.2521557537772437 N3-
   0.2133540000000001    0.7500000000000000    0.2521557537772437 N3-
   0.7133540000000000    0.2500000000000000    0.2521557537772437 N3-
   0.7133540000000000    0.7500000000000000    0.2521557537772437 N3-
   0.2133540000000001    0.2500000000000000    0.2891570027572404 N3-
   0.2133540000000001    0.7500000000000000    0.2891570027572404 N3-
   0.7133540000000000    0.2500000000000000    0.2891570027572404 N3-
   0.7133540000000000    0.7500000000000000    0.2891570027572404 N3-
   0.7133540000000000    0.7500000000000000    0.3548388815107334 N3-
   0.2133540000000001    0.2500000000000000    0.3548388815107335 N3-
   0.2133540000000001    0.7500000000000000    0.3548388815107335 N3-
   0.7133540000000000    0.2500000000000000    0.3548388815107335 N3-
   0.2133540000000001    0.2500000000000000    0.3918401304907301 N3-
   0.2133540000000001    0.7500000000000000    0.3918401304907301 N3-
   0.7133540000000000    0.2500000000000000    0.3918401304907301 N3-
   0.7133540000000000    0.7500000000000000    0.3918401304907301 N3-
   0.2133540000000001    0.2500000000000000    0.4575220092442233 N3-
   0.2133540000000001    0.7500000000000000    0.4575220092442233 N3-
   0.7133540000000000    0.2500000000000000    0.4575220092442233 N3-
   0.7133540000000000    0.7500000000000000    0.4575220092442233 N3-
   0.2133540000000001    0.2500000000000000    0.4945232582242199 N3-
   0.2133540000000001    0.7500000000000000    0.4945232582242199 N3-
   0.7133540000000000    0.2500000000000000    0.4945232582242199 N3-
   0.7133540000000000    0.7500000000000000    0.4945232582242199 N3-
   0.2133540000000001    0.2500000000000001    0.5602051369777128 N3-
   0.2133540000000001    0.7500000000000000    0.5602051369777128 N3-
   0.7133540000000000    0.2500000000000001    0.5602051369777128 N3-
   0.7133540000000000    0.7500000000000000    0.5602051369777129 N3-
   0.2133540000000001    0.2500000000000001    0.5972063859577096 N3-
   0.2133540000000001    0.7500000000000000    0.5972063859577096 N3-
   0.7133540000000000    0.2500000000000001    0.5972063859577096 N3-
   0.7133540000000000    0.7500000000000000    0.5972063859577096 N3-
