H5PbCI3N2 slab + C70-D5h; termination=AI; distance=2.00 Å
1.0
  12.7047439999999998    0.0000000000000000    0.0000000000000008
  -0.0000000000000008   12.9768600000000003    0.0000000000000008
  -0.0000000000000001   -0.0000000000000001   54.4341601761395708
H Pb C I N
100 16 90 52 40
direct
   0.7592245000000000    0.7500000000000000    0.1585408582589362 H+
   0.2592245000000000    0.2500000000000000    0.1585408582589362 H+
   0.2592245000000000    0.7500000000000000    0.1585408582589362 H+
   0.7592245000000000    0.2500000000000000    0.1585408582589362 H+
   0.1335015000000000    0.7500000000000000    0.1713711663555445 H+
   0.6335014999999999    0.2500000000000000    0.1713711663555445 H+
   0.1335015000000000    0.2500000000000000    0.1713711663555445 H+
   0.6335014999999999    0.7500000000000000    0.1713711663555445 H+
   0.3462020000000000    0.2500000000000000    0.1954258137994111 H+
   0.3462020000000000    0.7500000000000000    0.1954258137994111 H+
   0.8462019999999999    0.2500000000000000    0.1954258137994111 H+
   0.8462019999999999    0.7500000000000000    0.1954258137994111 H+
   0.1335015000000000    0.7500000000000000    0.2194804612432777 H+
   0.6335014999999999    0.2500000000000000    0.2194804612432777 H+
   0.6335014999999999    0.7500000000000000    0.2194804612432777 H+
   0.1335015000000000    0.2500000000000000    0.2194804612432777 H+
   0.7592245000000000    0.7500000000000000    0.2323107693398860 H+
   0.2592245000000000    0.2500000000000000    0.2323107693398861 H+
   0.2592245000000000    0.7500000000000000    0.2323107693398861 H+
   0.7592245000000000    0.2500000000000000    0.2323107693398861 H+
   0.2592245000000000    0.2500000000000000    0.2780059143736531 H+
   0.2592245000000000    0.7500000000000000    0.2780059143736531 H+
   0.7592245000000000    0.2500000000000000    0.2780059143736531 H+
   0.7592245000000000    0.7500000000000000    0.2780059143736531 H+
   0.1335015000000000    0.2500000000000000    0.2908362224702614 H+
   0.1335015000000000    0.7500000000000000    0.2908362224702614 H+
   0.6335014999999999    0.2500000000000000    0.2908362224702614 H+
   0.6335014999999999    0.7500000000000000    0.2908362224702614 H+
   0.8462019999999999    0.7500000000000000    0.3148908699141280 H+
   0.3462020000000000    0.2500000000000000    0.3148908699141280 H+
   0.3462020000000000    0.7500000000000000    0.3148908699141280 H+
   0.8462019999999999    0.2500000000000000    0.3148908699141280 H+
   0.1335015000000000    0.2500000000000000    0.3389455173579946 H+
   0.1335015000000000    0.7500000000000000    0.3389455173579946 H+
   0.6335014999999999    0.2500000000000000    0.3389455173579946 H+
   0.6335014999999999    0.7500000000000000    0.3389455173579946 H+
   0.2592245000000000    0.7500000000000000    0.3517758254546029 H+
   0.7592245000000000    0.2500000000000000    0.3517758254546029 H+
   0.2592245000000000    0.2500000000000000    0.3517758254546030 H+
   0.7592245000000000    0.7500000000000000    0.3517758254546030 H+
   0.2592245000000000    0.2500000000000000    0.3974709704883699 H+
   0.2592245000000000    0.7500000000000000    0.3974709704883699 H+
   0.7592245000000000    0.2500000000000000    0.3974709704883699 H+
   0.7592245000000000    0.7500000000000000    0.3974709704883699 H+
   0.6335014999999999    0.7500000000000000    0.4103012785849782 H+
   0.1335015000000000    0.2500000000000000    0.4103012785849783 H+
   0.1335015000000000    0.7500000000000000    0.4103012785849783 H+
   0.6335014999999999    0.2500000000000000    0.4103012785849783 H+
   0.3462020000000000    0.7500000000000000    0.4343559260288448 H+
   0.8462019999999999    0.2500000000000000    0.4343559260288448 H+
   0.8462019999999999    0.7500000000000000    0.4343559260288448 H+
   0.3462020000000000    0.2500000000000000    0.4343559260288449 H+
   0.1335015000000000    0.7500000000000000    0.4584105734727114 H+
   0.6335014999999999    0.2500000000000000    0.4584105734727114 H+
   0.6335014999999999    0.7500000000000000    0.4584105734727114 H+
   0.1335015000000000    0.2500000000000000    0.4584105734727115 H+
   0.7592245000000000    0.7500000000000000    0.4712408815693198 H+
   0.2592245000000000    0.7500000000000000    0.4712408815693198 H+
   0.7592245000000000    0.2500000000000000    0.4712408815693198 H+
   0.2592245000000000    0.2500000000000000    0.4712408815693199 H+
   0.2592245000000000    0.2500000000000000    0.5169360266030868 H+
   0.2592245000000000    0.7500000000000000    0.5169360266030868 H+
   0.7592245000000000    0.2500000000000000    0.5169360266030868 H+
   0.7592245000000000    0.7500000000000000    0.5169360266030868 H+
   0.1335015000000000    0.2500000000000000    0.5297663346996951 H+
   0.1335015000000000    0.7500000000000000    0.5297663346996951 H+
   0.6335014999999999    0.2500000000000000    0.5297663346996951 H+
   0.6335014999999999    0.7500000000000000    0.5297663346996951 H+
   0.3462020000000000    0.2500000000000000    0.5538209821435618 H+
   0.3462020000000000    0.7500000000000000    0.5538209821435618 H+
   0.8462019999999999    0.2500000000000000    0.5538209821435618 H+
   0.8462019999999999    0.7500000000000000    0.5538209821435618 H+
   0.1335015000000000    0.2500000000000000    0.5778756295874283 H+
   0.1335015000000000    0.7500000000000000    0.5778756295874283 H+
   0.6335014999999999    0.2500000000000000    0.5778756295874283 H+
   0.6335014999999999    0.7500000000000000    0.5778756295874283 H+
   0.2592245000000000    0.2500000000000000    0.5907059376840366 H+
   0.2592245000000000    0.7500000000000000    0.5907059376840366 H+
   0.7592245000000000    0.2500000000000000    0.5907059376840366 H+
   0.7592245000000000    0.7500000000000000    0.5907059376840366 H+
   0.2592245000000000    0.2500000000000000    0.6364010827178036 H+
   0.2592245000000000    0.7500000000000000    0.6364010827178036 H+
   0.7592245000000000    0.2500000000000000    0.6364010827178036 H+
   0.7592245000000000    0.7500000000000000    0.6364010827178036 H+
   0.1335015000000000    0.2500000000000000    0.6492313908144122 H+
   0.1335015000000000    0.7500000000000000    0.6492313908144122 H+
   0.6335014999999999    0.2500000000000000    0.6492313908144122 H+
   0.6335014999999999    0.7500000000000000    0.6492313908144122 H+
   0.3462020000000000    0.2500000000000000    0.6732860382582787 H+
   0.3462020000000000    0.7500000000000000    0.6732860382582787 H+
   0.8462019999999999    0.2500000000000000    0.6732860382582787 H+
   0.8462019999999999    0.7500000000000000    0.6732860382582787 H+
   0.1335015000000000    0.2500000000000000    0.6973406857021452 H+
   0.1335015000000000    0.7500000000000000    0.6973406857021452 H+
   0.6335014999999999    0.2500000000000000    0.6973406857021452 H+
   0.6335014999999999    0.7500000000000000    0.6973406857021452 H+
   0.2592245000000000    0.2500000000000000    0.7101709937987534 H+
   0.2592245000000000    0.7500000000000000    0.7101709937987535 H+
   0.7592245000000000    0.2500000000000000    0.7101709937987535 H+
   0.7592245000000000    0.7500000000000000    0.7101709937987535 H+
   0.4824370000000001    0.5000000000000000    0.2551583418567696 Pb2+
   0.9824369999999999    0.0000000000000000    0.2551583418567696 Pb2+
   0.9824369999999999    0.5000000000000000    0.2551583418567696 Pb2+
   0.4824370000000000    0.0000000000000000    0.2551583418567696 Pb2+
   0.4824370000000000    0.0000000000000000    0.3746233979714864 Pb2+
   0.4824370000000001    0.5000000000000000    0.3746233979714864 Pb2+
   0.9824369999999999    0.0000000000000000    0.3746233979714864 Pb2+
   0.9824369999999999    0.5000000000000000    0.3746233979714864 Pb2+
   0.4824370000000000    0.0000000000000000    0.4940884540862034 Pb2+
   0.4824370000000001    0.5000000000000000    0.4940884540862034 Pb2+
   0.9824369999999999    0.0000000000000000    0.4940884540862034 Pb2+
   0.9824369999999999    0.5000000000000000    0.4940884540862034 Pb2+
   0.4824370000000000    0.0000000000000000    0.6135535102009201 Pb2+
   0.4824370000000001    0.5000000000000000    0.6135535102009201 Pb2+
   0.9824369999999999    0.0000000000000000    0.6135535102009201 Pb2+
   0.9824369999999999    0.5000000000000000    0.6135535102009202 Pb2+
   0.5000676349165318    0.4541445702167163    0.7469126279771507 C
   0.5000120341405540    0.5647338458388622    0.7476768504936806 C
   0.4068426516543740    0.4024448705590180    0.7531879987740852 C
   0.5929460653969099    0.4022912598434828    0.7532047089198293 C
   0.5937176213704107    0.6134441020083053    0.7546320042408851 C
   0.4064564928403908    0.6135209073660730    0.7546320042408851 C
   0.3141683445707366    0.4548693741754552    0.7580655836562781 C
   0.6852029858334805    0.4544301668383182    0.7582474398168758 C
   0.3139634595195305    0.5604342371700471    0.7587764759204332 C
   0.6863287111334158    0.5600949513663165    0.7589545989633648 C
   0.5928988428200519    0.3121076018457082    0.7674824618531000 C
   0.4059370444949539    0.3122462988995410    0.7675135711669853 C
   0.5936627822488982    0.6990500115465140    0.7704602453781969 C
   0.4063856589751040    0.6991581355938569    0.7704842439917656 C
   0.2560244043327436    0.3988156309837278    0.7748601689666201 C
   0.7439135969937685    0.3992548383208648    0.7750327812168063 C
   0.2553716664558529    0.6109550118701671    0.7763978579100915 C
   0.4994141353851757    0.2691383597486216    0.7764088794955823 C
   0.7455115480622825    0.6104539128369650    0.7765226507006484 C
   0.5000912462049607    0.7394757286402487    0.7800426251248884 C
   0.3132475043220074    0.3123156474264573    0.7807663166496136 C
   0.6852502084103385    0.3134639993775457    0.7808454231906361 C
   0.3136801240583831    0.6953126479238811    0.7837369894743939 C
   0.6860057696400649    0.6939793665676826    0.7837535218526300 C
   0.8044735051961690    0.4499911154325852    0.7923510696054682 C
   0.1964409371550500    0.4489896630492660    0.7924943502168483 C
   0.1964881597319079    0.5553710490220668    0.7931373352929796 C
   0.8053235115796114    0.5562651230411284    0.7933227468037358 C
   0.4993433015198888    0.2316178239545235    0.8012902865085204 C
   0.3131058365914337    0.2767137542103789    0.8044554369869606 C
   0.6850377068144778    0.2778695629923185    0.8045951622481825 C
   0.5001384687818186    0.7701382171004770    0.8054365358631478 C
   0.3142231836922490    0.7241332991638576    0.8079423466547284 C
   0.6857696567557753    0.7229387148614916    0.8080378078064793 C
   0.4057329210982132    0.2409112722444025    0.8147083557735104 C
   0.5928440036985396    0.2408113507109962    0.8147284435019050 C
   0.8040881080366512    0.4132721889549936    0.8161614273832140 C
   0.1962436686484984    0.4134802345357427    0.8164332339028171 C
   0.1970700637435117    0.5850701149363171    0.8175282817515782 C
   0.8051422378168340    0.5845921320787538    0.8177652458396301 C
   0.4067398283015382    0.7571305213636038    0.8186910590208553 C
   0.5935127363192046    0.7572229860661591    0.8186983474886798 C
   0.7436302615326209    0.3282128651181794    0.8222476535517260 C
   0.2557570636153706    0.3273575666195441    0.8223358262356522 C
   0.7443622114739186    0.6679020833978709    0.8249335428288254 C
   0.2569772340690216    0.6687342657208675    0.8249721183780430 C
   0.8050950152399763    0.4965895971049620    0.8320632642688029 C
   0.1959999392195544    0.4973524309010421    0.8320963290252753 C
   0.5929300706531354    0.2707259190368469    0.8395787412009579 C
   0.4059218114056448    0.2710189724893000    0.8395822965511162 C
   0.5935287310629791    0.7200641065683451    0.8429424579857400 C
   0.4074329338650979    0.7200872227439840    0.8429680565068799 C
   0.6851085406797648    0.3246678877315081    0.8435082919634359 C
   0.3136565127699542    0.3244680446646953    0.8437322790234097 C
   0.6856912063458340    0.6653898770840940    0.8461995142657726 C
   0.3148058493583183    0.6656135820096308    0.8463776373087042 C
   0.4994925857951170    0.2930039468879604    0.8520763303099600 C
   0.7452282126011353    0.4936844158053256    0.8532062205902725 C
   0.2550251136740731    0.4943085525475730    0.8533788328404588 C
   0.5005634719735398    0.6940181420881089    0.8553243204470889 C
   0.6853994926855667    0.4082783493339296    0.8589966416256128 C
   0.3138377865327312    0.4079934983954129    0.8591674762007200 C
   0.6863759337102737    0.5780502543729761    0.8604314031820010 C
   0.3139246151417926    0.5781427190755312    0.8605508629473204 C
   0.5000204123396739    0.3806142525589779    0.8682003765804438 C
   0.5001384687818187    0.6028322860239301    0.8702340368710002 C
   0.5931745617365448    0.4379080667212637    0.8703590074290649 C
   0.4069051073205409    0.4380780824646715    0.8703865613927919 C
   0.4066065387700845    0.5462707326512344    0.8713619717087258 C
   0.5935919483836115    0.5459776791987814    0.8714042803756097 C
   0.7599155000000001    0.2500000000000000    0.1954258137994111 C2+
   0.2599155000000000    0.2500000000000000    0.1954258137994111 C2+
   0.2599155000000000    0.7500000000000000    0.1954258137994111 C2+
   0.7599155000000001    0.7500000000000000    0.1954258137994111 C2+
   0.2599155000000000    0.2500000000000000    0.3148908699141280 C2+
   0.7599155000000001    0.7500000000000000    0.3148908699141280 C2+
   0.2599155000000000    0.7500000000000000    0.3148908699141280 C2+
   0.7599155000000001    0.2500000000000000    0.3148908699141280 C2+
   0.2599155000000000    0.7500000000000000    0.4343559260288448 C2+
   0.7599155000000001    0.2500000000000000    0.4343559260288448 C2+
   0.7599155000000001    0.7500000000000000    0.4343559260288448 C2+
   0.2599155000000000    0.2500000000000000    0.4343559260288449 C2+
   0.2599155000000000    0.7500000000000000    0.5538209821435618 C2+
   0.7599155000000001    0.2500000000000000    0.5538209821435618 C2+
   0.7599155000000001    0.7500000000000000    0.5538209821435618 C2+
   0.2599155000000000    0.2500000000000000    0.5538209821435619 C2+
   0.2599155000000000    0.2500000000000000    0.6732860382582787 C2+
   0.2599155000000000    0.7500000000000000    0.6732860382582787 C2+
   0.7599155000000001    0.2500000000000000    0.6732860382582787 C2+
   0.7599155000000001    0.7500000000000000    0.6732860382582787 C2+
   0.4918860000000001    0.5000000000000000    0.1954258137994111 I-
   0.9918859999999999    0.0000000000000000    0.1954258137994111 I-
   0.4918860000000000    0.0000000000000000    0.1954258137994111 I-
   0.9918859999999999    0.5000000000000000    0.1954258137994111 I-
   0.2313650000000000    0.5000000000000000    0.2551583418567696 I-
   0.7313649999999999    0.0000000000000000    0.2551583418567696 I-
   0.7313649999999999    0.5000000000000000    0.2551583418567696 I-
   0.4602915000000000    0.2500000000000000    0.2551583418567696 I-
   0.4602915000000001    0.7500000000000000    0.2551583418567696 I-
   0.9602915000000000    0.2500000000000000    0.2551583418567696 I-
   0.9602915000000000    0.7500000000000000    0.2551583418567696 I-
   0.2313650000000000    0.0000000000000000    0.2551583418567696 I-
   0.4918860000000000    0.0000000000000000    0.3148908699141280 I-
   0.9918859999999999    0.5000000000000000    0.3148908699141280 I-
   0.4918860000000001    0.5000000000000000    0.3148908699141280 I-
   0.9918859999999999    0.0000000000000000    0.3148908699141280 I-
   0.2313650000000000    0.5000000000000000    0.3746233979714864 I-
   0.7313649999999999    0.0000000000000000    0.3746233979714864 I-
   0.4602915000000000    0.2500000000000000    0.3746233979714864 I-
   0.7313649999999999    0.5000000000000000    0.3746233979714864 I-
   0.4602915000000001    0.7500000000000000    0.3746233979714864 I-
   0.9602915000000000    0.2500000000000000    0.3746233979714864 I-
   0.9602915000000000    0.7500000000000000    0.3746233979714864 I-
   0.2313650000000000    0.0000000000000000    0.3746233979714865 I-
   0.4918860000000001    0.5000000000000000    0.4343559260288448 I-
   0.9918859999999999    0.0000000000000000    0.4343559260288448 I-
   0.9918859999999999    0.5000000000000000    0.4343559260288448 I-
   0.4918860000000000    0.0000000000000000    0.4343559260288449 I-
   0.2313650000000000    0.0000000000000000    0.4940884540862034 I-
   0.2313650000000000    0.5000000000000000    0.4940884540862034 I-
   0.7313649999999999    0.0000000000000000    0.4940884540862034 I-
   0.7313649999999999    0.5000000000000000    0.4940884540862034 I-
   0.4602915000000000    0.2500000000000000    0.4940884540862034 I-
   0.4602915000000001    0.7500000000000000    0.4940884540862034 I-
   0.9602915000000000    0.2500000000000000    0.4940884540862034 I-
   0.9602915000000000    0.7500000000000000    0.4940884540862034 I-
   0.4918860000000001    0.5000000000000000    0.5538209821435618 I-
   0.9918859999999999    0.0000000000000000    0.5538209821435618 I-
   0.9918859999999999    0.5000000000000000    0.5538209821435618 I-
   0.4918860000000000    0.0000000000000000    0.5538209821435619 I-
   0.2313650000000000    0.0000000000000000    0.6135535102009201 I-
   0.2313650000000000    0.5000000000000000    0.6135535102009201 I-
   0.7313649999999999    0.0000000000000000    0.6135535102009201 I-
   0.4602915000000000    0.2500000000000000    0.6135535102009201 I-
   0.7313649999999999    0.5000000000000000    0.6135535102009202 I-
   0.4602915000000001    0.7500000000000000    0.6135535102009202 I-
   0.9602915000000000    0.2500000000000000    0.6135535102009202 I-
   0.9602915000000000    0.7500000000000000    0.6135535102009202 I-
   0.4918860000000000    0.0000000000000000    0.6732860382582787 I-
   0.4918860000000001    0.5000000000000000    0.6732860382582787 I-
   0.9918859999999999    0.0000000000000000    0.6732860382582787 I-
   0.9918859999999999    0.5000000000000000    0.6732860382582787 I-
   0.2133540000000001    0.7500000000000000    0.1739015557091104 N3-
   0.7133540000000000    0.2500000000000000    0.1739015557091104 N3-
   0.7133540000000000    0.7500000000000000    0.1739015557091104 N3-
   0.2133540000000001    0.2500000000000000    0.1739015557091104 N3-
   0.2133540000000001    0.2500000000000000    0.2169500718897119 N3-
   0.2133540000000001    0.7500000000000000    0.2169500718897119 N3-
   0.7133540000000000    0.2500000000000000    0.2169500718897119 N3-
   0.7133540000000000    0.7500000000000000    0.2169500718897119 N3-
   0.2133540000000001    0.7500000000000000    0.2933666118238272 N3-
   0.7133540000000000    0.2500000000000000    0.2933666118238272 N3-
   0.7133540000000000    0.7500000000000000    0.2933666118238272 N3-
   0.2133540000000001    0.2500000000000000    0.2933666118238272 N3-
   0.2133540000000001    0.2500000000000000    0.3364151280044288 N3-
   0.2133540000000001    0.7500000000000000    0.3364151280044288 N3-
   0.7133540000000000    0.2500000000000000    0.3364151280044288 N3-
   0.7133540000000000    0.7500000000000000    0.3364151280044288 N3-
   0.7133540000000000    0.7500000000000000    0.4128316679385440 N3-
   0.2133540000000001    0.2500000000000000    0.4128316679385441 N3-
   0.2133540000000001    0.7500000000000000    0.4128316679385441 N3-
   0.7133540000000000    0.2500000000000000    0.4128316679385441 N3-
   0.2133540000000001    0.2500000000000000    0.4558801841191456 N3-
   0.2133540000000001    0.7500000000000000    0.4558801841191456 N3-
   0.7133540000000000    0.2500000000000000    0.4558801841191456 N3-
   0.7133540000000000    0.7500000000000000    0.4558801841191457 N3-
   0.2133540000000001    0.2500000000000000    0.5322967240532610 N3-
   0.2133540000000001    0.7500000000000000    0.5322967240532610 N3-
   0.7133540000000000    0.2500000000000000    0.5322967240532610 N3-
   0.7133540000000000    0.7500000000000000    0.5322967240532610 N3-
   0.2133540000000001    0.2500000000000000    0.5753452402338626 N3-
   0.2133540000000001    0.7500000000000000    0.5753452402338626 N3-
   0.7133540000000000    0.2500000000000000    0.5753452402338626 N3-
   0.7133540000000000    0.7500000000000000    0.5753452402338626 N3-
   0.2133540000000001    0.2500000000000000    0.6517617801679777 N3-
   0.2133540000000001    0.7500000000000000    0.6517617801679777 N3-
   0.7133540000000000    0.2500000000000000    0.6517617801679777 N3-
   0.7133540000000000    0.7500000000000000    0.6517617801679778 N3-
   0.2133540000000001    0.2500000000000000    0.6948102963485794 N3-
   0.2133540000000001    0.7500000000000000    0.6948102963485794 N3-
   0.7133540000000000    0.2500000000000000    0.6948102963485794 N3-
   0.7133540000000000    0.7500000000000000    0.6948102963485794 N3-
