H5PbCI3N2 slab + C60-Ih; termination=AI; distance=2.00 Å
1.0
  12.7047439999999998    0.0000000000000000    0.0000000000000008
  -0.0000000000000008   12.9768600000000003    0.0000000000000008
  -0.0000000000000002   -0.0000000000000002   54.5539616288895743
H Pb C I N
100 16 80 52 40
direct
   0.2592245000000000    0.2500000000000000    0.1581926997646208 H+
   0.2592245000000000    0.7500000000000000    0.1581926997646208 H+
   0.7592245000000000    0.2500000000000000    0.1581926997646208 H+
   0.7592245000000000    0.7500000000000000    0.1581926997646208 H+
   0.1335015000000000    0.7500000000000000    0.1709948322805140 H+
   0.6335014999999999    0.2500000000000000    0.1709948322805140 H+
   0.1335015000000000    0.2500000000000000    0.1709948322805140 H+
   0.6335014999999999    0.7500000000000000    0.1709948322805140 H+
   0.3462020000000000    0.2500000000000000    0.1949966552983790 H+
   0.3462020000000000    0.7500000000000000    0.1949966552983790 H+
   0.8462019999999999    0.2500000000000000    0.1949966552983790 H+
   0.8462019999999999    0.7500000000000000    0.1949966552983790 H+
   0.1335015000000000    0.7500000000000000    0.2189984783162438 H+
   0.6335014999999999    0.2500000000000000    0.2189984783162438 H+
   0.1335015000000000    0.2500000000000000    0.2189984783162439 H+
   0.6335014999999999    0.7500000000000000    0.2189984783162439 H+
   0.7592245000000000    0.7500000000000000    0.2318006108321371 H+
   0.2592245000000000    0.7500000000000000    0.2318006108321371 H+
   0.7592245000000000    0.2500000000000000    0.2318006108321371 H+
   0.2592245000000000    0.2500000000000000    0.2318006108321371 H+
   0.2592245000000000    0.2500000000000000    0.2773954085291532 H+
   0.2592245000000000    0.7500000000000000    0.2773954085291532 H+
   0.7592245000000000    0.2500000000000000    0.2773954085291532 H+
   0.7592245000000000    0.7500000000000000    0.2773954085291532 H+
   0.1335015000000000    0.2500000000000000    0.2901975410450464 H+
   0.1335015000000000    0.7500000000000000    0.2901975410450464 H+
   0.6335014999999999    0.2500000000000000    0.2901975410450464 H+
   0.6335014999999999    0.7500000000000000    0.2901975410450464 H+
   0.8462019999999999    0.7500000000000000    0.3141993640629113 H+
   0.3462020000000000    0.2500000000000000    0.3141993640629114 H+
   0.3462020000000000    0.7500000000000000    0.3141993640629114 H+
   0.8462019999999999    0.2500000000000000    0.3141993640629114 H+
   0.1335015000000000    0.2500000000000000    0.3382011870807762 H+
   0.6335014999999999    0.7500000000000000    0.3382011870807762 H+
   0.1335015000000000    0.7500000000000000    0.3382011870807763 H+
   0.6335014999999999    0.2500000000000000    0.3382011870807763 H+
   0.2592245000000000    0.7500000000000000    0.3510033195966695 H+
   0.7592245000000000    0.2500000000000000    0.3510033195966695 H+
   0.2592245000000000    0.2500000000000000    0.3510033195966695 H+
   0.7592245000000000    0.7500000000000000    0.3510033195966695 H+
   0.2592245000000000    0.7500000000000000    0.3965981172936855 H+
   0.7592245000000000    0.2500000000000000    0.3965981172936855 H+
   0.2592245000000000    0.2500000000000000    0.3965981172936856 H+
   0.7592245000000000    0.7500000000000000    0.3965981172936856 H+
   0.6335014999999999    0.7500000000000000    0.4094002498095788 H+
   0.1335015000000000    0.2500000000000000    0.4094002498095789 H+
   0.1335015000000000    0.7500000000000000    0.4094002498095789 H+
   0.6335014999999999    0.2500000000000000    0.4094002498095789 H+
   0.8462019999999999    0.7500000000000000    0.4334020728274437 H+
   0.3462020000000000    0.7500000000000000    0.4334020728274438 H+
   0.8462019999999999    0.2500000000000000    0.4334020728274438 H+
   0.3462020000000000    0.2500000000000000    0.4334020728274438 H+
   0.6335014999999999    0.7500000000000000    0.4574038958453086 H+
   0.1335015000000000    0.7500000000000000    0.4574038958453087 H+
   0.6335014999999999    0.2500000000000000    0.4574038958453087 H+
   0.1335015000000000    0.2500000000000000    0.4574038958453087 H+
   0.7592245000000000    0.7500000000000000    0.4702060283612019 H+
   0.2592245000000000    0.2500000000000000    0.4702060283612020 H+
   0.2592245000000000    0.7500000000000000    0.4702060283612020 H+
   0.7592245000000000    0.2500000000000000    0.4702060283612020 H+
   0.2592245000000000    0.2500000000000000    0.5158008260582180 H+
   0.2592245000000000    0.7500000000000000    0.5158008260582180 H+
   0.7592245000000000    0.2500000000000000    0.5158008260582180 H+
   0.7592245000000000    0.7500000000000000    0.5158008260582180 H+
   0.1335015000000000    0.2500000000000000    0.5286029585741112 H+
   0.1335015000000000    0.7500000000000000    0.5286029585741112 H+
   0.6335014999999999    0.2500000000000000    0.5286029585741112 H+
   0.6335014999999999    0.7500000000000000    0.5286029585741112 H+
   0.8462019999999999    0.7500000000000000    0.5526047815919762 H+
   0.3462020000000000    0.2500000000000000    0.5526047815919763 H+
   0.3462020000000000    0.7500000000000000    0.5526047815919763 H+
   0.8462019999999999    0.2500000000000000    0.5526047815919763 H+
   0.1335015000000000    0.2500000000000000    0.5766066046098410 H+
   0.1335015000000000    0.7500000000000000    0.5766066046098410 H+
   0.6335014999999999    0.2500000000000000    0.5766066046098410 H+
   0.6335014999999999    0.7500000000000000    0.5766066046098410 H+
   0.2592245000000000    0.2500000000000000    0.5894087371257343 H+
   0.2592245000000000    0.7500000000000000    0.5894087371257343 H+
   0.7592245000000000    0.2500000000000000    0.5894087371257343 H+
   0.7592245000000000    0.7500000000000000    0.5894087371257343 H+
   0.2592245000000000    0.2500000000000000    0.6350035348227504 H+
   0.2592245000000000    0.7500000000000000    0.6350035348227504 H+
   0.7592245000000000    0.2500000000000000    0.6350035348227504 H+
   0.7592245000000000    0.7500000000000000    0.6350035348227504 H+
   0.1335015000000000    0.2500000000000000    0.6478056673386439 H+
   0.1335015000000000    0.7500000000000000    0.6478056673386439 H+
   0.6335014999999999    0.2500000000000000    0.6478056673386439 H+
   0.6335014999999999    0.7500000000000000    0.6478056673386439 H+
   0.3462020000000000    0.2500000000000000    0.6718074903565088 H+
   0.3462020000000000    0.7500000000000000    0.6718074903565088 H+
   0.8462019999999999    0.2500000000000000    0.6718074903565088 H+
   0.8462019999999999    0.7500000000000000    0.6718074903565088 H+
   0.1335015000000000    0.2500000000000000    0.6958093133743735 H+
   0.1335015000000000    0.7500000000000000    0.6958093133743735 H+
   0.6335014999999999    0.2500000000000000    0.6958093133743735 H+
   0.6335014999999999    0.7500000000000000    0.6958093133743735 H+
   0.2592245000000000    0.2500000000000000    0.7086114458902666 H+
   0.2592245000000000    0.7500000000000000    0.7086114458902667 H+
   0.7592245000000000    0.2500000000000000    0.7086114458902667 H+
   0.7592245000000000    0.7500000000000000    0.7086114458902667 H+
   0.4824370000000000    0.0000000000000000    0.2545980096806452 Pb2+
   0.4824370000000001    0.5000000000000000    0.2545980096806452 Pb2+
   0.9824369999999999    0.0000000000000000    0.2545980096806452 Pb2+
   0.9824369999999999    0.5000000000000000    0.2545980096806452 Pb2+
   0.4824370000000000    0.0000000000000000    0.3738007184451775 Pb2+
   0.4824370000000001    0.5000000000000000    0.3738007184451775 Pb2+
   0.9824369999999999    0.0000000000000000    0.3738007184451775 Pb2+
   0.9824369999999999    0.5000000000000000    0.3738007184451776 Pb2+
   0.4824370000000000    0.0000000000000000    0.4930034272097101 Pb2+
   0.4824370000000001    0.5000000000000000    0.4930034272097101 Pb2+
   0.9824369999999999    0.0000000000000000    0.4930034272097101 Pb2+
   0.9824369999999999    0.5000000000000000    0.4930034272097101 Pb2+
   0.4824370000000000    0.0000000000000000    0.6122061359742423 Pb2+
   0.4824370000000001    0.5000000000000000    0.6122061359742423 Pb2+
   0.9824369999999999    0.0000000000000000    0.6122061359742423 Pb2+
   0.9824369999999999    0.5000000000000000    0.6122061359742424 Pb2+
   0.5018938793453845    0.4945839133234077    0.7452723947981621 C
   0.5664522421506484    0.5782017389761466    0.7504030765331394 C
   0.3993102371248093    0.5241285595244148    0.7506138723517498 C
   0.5352909324461790    0.3955616851803901    0.7506322024229333 C
   0.5042788984768207    0.6592998829416359    0.7585253522995496 C
   0.4005220846834850    0.6259866751240283    0.7586792616903490 C
   0.6652815996331762    0.5638223480449043    0.7609156883925923 C
   0.3283683010653342    0.4549904337759672    0.7610476333015425 C
   0.6338522721315751    0.3802263696649264    0.7611776819962325 C
   0.4656633013817514    0.3264076162839082    0.7612931930482596 C
   0.6984031711500835    0.4639292254405147    0.7661947488934430 C
   0.3625917989177899    0.3554978827659385    0.7663560851234289 C
   0.5398404497367282    0.7258107107536028    0.7767403864845973 C
   0.3307451778839462    0.6578742997882381    0.7768137067693313 C
   0.6244621498670102    0.3013708951895911    0.7782764780533463 C
   0.5203280755794841    0.2679573783989345    0.7783662321950036 C
   0.2588824819492623    0.4870009535396080    0.7791435220238974 C
   0.7010243173534230    0.6299631619629091    0.7791435220238974 C
   0.6386223103944476    0.7110998352028145    0.7869943231153654 C
   0.2602279991434694    0.5884432186946609    0.7870181838114751 C
   0.7535639479040268    0.4685527383704530    0.7881254149216721 C
   0.3148771672416223    0.3266387919304052    0.7881932045814801 C
   0.4703620944074117    0.7581759655610060    0.7948966380275736 C
   0.3668183377996438    0.7244621861490373    0.7949369325806064 C
   0.2511133584627914    0.4074752025489985    0.7960605975477264 C
   0.7554210737540242    0.5700567832241388    0.7960955194936881 C
   0.6803387716234185    0.3049773681345100    0.8001630571000220 C
   0.4731013041467028    0.2382891728006619    0.8002472806167530 C
   0.7444493072233487    0.3890881027806417    0.8051305063907530 C
   0.3699666987583534    0.2679035702743188    0.8051910272292296 C
   0.6301766964174953    0.7328775111197929    0.8117972796944795 C
   0.2543879252702769    0.6105982157817837    0.8118688617828083 C
   0.5267347187200306    0.7619750848780057    0.8166842978970003 C
   0.3195603541677029    0.6944472170810193    0.8167318612713643 C
   0.7481404890370082    0.5928435275521194    0.8209168061439857 C
   0.2435654344747126    0.4291133759206770    0.8209515700720923 C
   0.6331601755415139    0.2760099967519105    0.8220366786825850 C
   0.5291278801642912    0.2427353182087190    0.8220532705573632 C
   0.6852981186594549    0.6742957422635365    0.8288135904312676 C
   0.2458323900701972    0.5308485964208597    0.8288447199487087 C
   0.3629853440376286    0.2905361975046349    0.8299995144332697 C
   0.7372392892174763    0.4114437178138624    0.8300306439507107 C
   0.7392857238406375    0.5131629951660107    0.8378468391319271 C
   0.2995757258666525    0.3712490487259628    0.8378907680956256 C
   0.3754763304360952    0.6988163039402441    0.8385817801756730 C
   0.4794536652017544    0.7327997882731259    0.8385947376397854 C
   0.6683356454683381    0.3411722999593120    0.8404863693823525 C
   0.4615466837230248    0.2750547364655238    0.8404991688286101 C
   0.6374654234473357    0.6443505244681683    0.8505168687661081 C
   0.3025273142654428    0.5354953597750147    0.8505607977298065 C
   0.3673611586545937    0.6192520236752185    0.8554331202718094 C
   0.5345194483060814    0.6738493341185769    0.8554881104853600 C
   0.6707050585001946    0.5450658986804201    0.8560966372450816 C
   0.3356488857823501    0.4361722047128502    0.8562450160109549 C
   0.6008100881647043    0.3734372457936664    0.8589580245639694 C
   0.4970844865705281    0.3401625672504749    0.8589910502956707 C
   0.4656001984573634    0.6037938130603242    0.8659895030771058 C
   0.6008175519514598    0.4756806541374413    0.8667374015849638 C
   0.4336755469256207    0.4205519054262739    0.8668456438156596 C
   0.4978485069238702    0.5044321287237434    0.8716866788223666 C
   0.7599155000000001    0.2500000000000000    0.1949966552983789 C2+
   0.2599155000000000    0.2500000000000000    0.1949966552983790 C2+
   0.2599155000000000    0.7500000000000000    0.1949966552983790 C2+
   0.7599155000000001    0.7500000000000000    0.1949966552983790 C2+
   0.2599155000000000    0.2500000000000000    0.3141993640629113 C2+
   0.7599155000000001    0.7500000000000000    0.3141993640629113 C2+
   0.2599155000000000    0.7500000000000000    0.3141993640629114 C2+
   0.7599155000000001    0.2500000000000000    0.3141993640629114 C2+
   0.7599155000000001    0.7500000000000000    0.4334020728274437 C2+
   0.2599155000000000    0.7500000000000000    0.4334020728274438 C2+
   0.7599155000000001    0.2500000000000000    0.4334020728274438 C2+
   0.2599155000000000    0.2500000000000000    0.4334020728274438 C2+
   0.7599155000000001    0.7500000000000000    0.5526047815919762 C2+
   0.2599155000000000    0.2500000000000000    0.5526047815919763 C2+
   0.2599155000000000    0.7500000000000000    0.5526047815919763 C2+
   0.7599155000000001    0.2500000000000000    0.5526047815919763 C2+
   0.2599155000000000    0.2500000000000000    0.6718074903565088 C2+
   0.2599155000000000    0.7500000000000000    0.6718074903565088 C2+
   0.7599155000000001    0.2500000000000000    0.6718074903565088 C2+
   0.7599155000000001    0.7500000000000000    0.6718074903565088 C2+
   0.4918860000000001    0.5000000000000000    0.1949966552983789 I-
   0.9918859999999999    0.0000000000000000    0.1949966552983789 I-
   0.4918860000000000    0.0000000000000000    0.1949966552983790 I-
   0.9918859999999999    0.5000000000000000    0.1949966552983790 I-
   0.2313650000000000    0.0000000000000000    0.2545980096806452 I-
   0.2313650000000000    0.5000000000000000    0.2545980096806452 I-
   0.7313649999999999    0.0000000000000000    0.2545980096806452 I-
   0.7313649999999999    0.5000000000000000    0.2545980096806452 I-
   0.4602915000000000    0.2500000000000000    0.2545980096806452 I-
   0.4602915000000001    0.7500000000000000    0.2545980096806452 I-
   0.9602915000000000    0.2500000000000000    0.2545980096806452 I-
   0.9602915000000000    0.7500000000000000    0.2545980096806452 I-
   0.4918860000000000    0.0000000000000000    0.3141993640629113 I-
   0.9918859999999999    0.5000000000000000    0.3141993640629113 I-
   0.4918860000000001    0.5000000000000000    0.3141993640629114 I-
   0.9918859999999999    0.0000000000000000    0.3141993640629114 I-
   0.2313650000000000    0.5000000000000000    0.3738007184451775 I-
   0.7313649999999999    0.0000000000000000    0.3738007184451775 I-
   0.4602915000000000    0.2500000000000000    0.3738007184451775 I-
   0.9602915000000000    0.7500000000000000    0.3738007184451775 I-
   0.2313650000000000    0.0000000000000000    0.3738007184451776 I-
   0.7313649999999999    0.5000000000000000    0.3738007184451776 I-
   0.4602915000000001    0.7500000000000000    0.3738007184451776 I-
   0.9602915000000000    0.2500000000000000    0.3738007184451776 I-
   0.9918859999999999    0.5000000000000000    0.4334020728274437 I-
   0.4918860000000001    0.5000000000000000    0.4334020728274438 I-
   0.9918859999999999    0.0000000000000000    0.4334020728274438 I-
   0.4918860000000000    0.0000000000000000    0.4334020728274438 I-
   0.2313650000000000    0.0000000000000000    0.4930034272097101 I-
   0.2313650000000000    0.5000000000000000    0.4930034272097101 I-
   0.7313649999999999    0.0000000000000000    0.4930034272097101 I-
   0.7313649999999999    0.5000000000000000    0.4930034272097101 I-
   0.4602915000000000    0.2500000000000000    0.4930034272097101 I-
   0.4602915000000001    0.7500000000000000    0.4930034272097101 I-
   0.9602915000000000    0.2500000000000000    0.4930034272097101 I-
   0.9602915000000000    0.7500000000000000    0.4930034272097101 I-
   0.9918859999999999    0.5000000000000000    0.5526047815919762 I-
   0.4918860000000000    0.0000000000000000    0.5526047815919763 I-
   0.4918860000000001    0.5000000000000000    0.5526047815919763 I-
   0.9918859999999999    0.0000000000000000    0.5526047815919763 I-
   0.2313650000000000    0.0000000000000000    0.6122061359742423 I-
   0.2313650000000000    0.5000000000000000    0.6122061359742423 I-
   0.7313649999999999    0.0000000000000000    0.6122061359742423 I-
   0.4602915000000000    0.2500000000000000    0.6122061359742423 I-
   0.7313649999999999    0.5000000000000000    0.6122061359742424 I-
   0.4602915000000001    0.7500000000000000    0.6122061359742424 I-
   0.9602915000000000    0.2500000000000000    0.6122061359742424 I-
   0.9602915000000000    0.7500000000000000    0.6122061359742424 I-
   0.4918860000000000    0.0000000000000000    0.6718074903565088 I-
   0.4918860000000001    0.5000000000000000    0.6718074903565088 I-
   0.9918859999999999    0.0000000000000000    0.6718074903565088 I-
   0.9918859999999999    0.5000000000000000    0.6718074903565088 I-
   0.2133540000000001    0.7500000000000000    0.1735196648548556 N3-
   0.7133540000000000    0.2500000000000000    0.1735196648548556 N3-
   0.7133540000000000    0.7500000000000000    0.1735196648548556 N3-
   0.2133540000000001    0.2500000000000000    0.1735196648548556 N3-
   0.2133540000000001    0.2500000000000000    0.2164736457419023 N3-
   0.2133540000000001    0.7500000000000000    0.2164736457419023 N3-
   0.7133540000000000    0.2500000000000000    0.2164736457419023 N3-
   0.7133540000000000    0.7500000000000000    0.2164736457419023 N3-
   0.2133540000000001    0.7500000000000000    0.2927223736193880 N3-
   0.7133540000000000    0.2500000000000000    0.2927223736193880 N3-
   0.7133540000000000    0.7500000000000000    0.2927223736193880 N3-
   0.2133540000000001    0.2500000000000000    0.2927223736193880 N3-
   0.7133540000000000    0.7500000000000000    0.3356763545064347 N3-
   0.2133540000000001    0.2500000000000000    0.3356763545064347 N3-
   0.2133540000000001    0.7500000000000000    0.3356763545064347 N3-
   0.7133540000000000    0.2500000000000000    0.3356763545064347 N3-
   0.7133540000000000    0.7500000000000000    0.4119250823839204 N3-
   0.2133540000000001    0.2500000000000000    0.4119250823839204 N3-
   0.2133540000000001    0.7500000000000000    0.4119250823839204 N3-
   0.7133540000000000    0.2500000000000000    0.4119250823839204 N3-
   0.2133540000000001    0.2500000000000000    0.4548790632709671 N3-
   0.2133540000000001    0.7500000000000000    0.4548790632709671 N3-
   0.7133540000000000    0.2500000000000000    0.4548790632709671 N3-
   0.7133540000000000    0.7500000000000000    0.4548790632709672 N3-
   0.2133540000000001    0.2500000000000000    0.5311277911484529 N3-
   0.2133540000000001    0.7500000000000000    0.5311277911484529 N3-
   0.7133540000000000    0.2500000000000000    0.5311277911484529 N3-
   0.7133540000000000    0.7500000000000000    0.5311277911484529 N3-
   0.2133540000000001    0.2500000000000000    0.5740817720354996 N3-
   0.2133540000000001    0.7500000000000000    0.5740817720354996 N3-
   0.7133540000000000    0.2500000000000000    0.5740817720354996 N3-
   0.7133540000000000    0.7500000000000000    0.5740817720354996 N3-
   0.2133540000000001    0.2500000000000000    0.6503304999129851 N3-
   0.2133540000000001    0.7500000000000000    0.6503304999129851 N3-
   0.7133540000000000    0.2500000000000000    0.6503304999129851 N3-
   0.7133540000000000    0.7500000000000000    0.6503304999129852 N3-
   0.2133540000000001    0.2500000000000000    0.6932844808000319 N3-
   0.2133540000000001    0.7500000000000000    0.6932844808000319 N3-
   0.7133540000000000    0.2500000000000000    0.6932844808000319 N3-
   0.7133540000000000    0.7500000000000000    0.6932844808000319 N3-
