H5PbCI3N2 slab (AI termination); vacuum=15.00 Å
1.0
  12.7047439999999998    0.0000000000000000    0.0000000000000008
  -0.0000000000000008   12.9768600000000003    0.0000000000000008
  -0.0000000000000001   -0.0000000000000001   54.4341601761395708
H Pb C I N
100 16 20 52 40
direct
   0.7592245000000000    0.7500000000000000    0.1585408582589362 H+
   0.2592245000000000    0.2500000000000000    0.1585408582589362 H+
   0.2592245000000000    0.7500000000000000    0.1585408582589362 H+
   0.7592245000000000    0.2500000000000000    0.1585408582589362 H+
   0.1335015000000000    0.7500000000000000    0.1713711663555445 H+
   0.6335014999999999    0.2500000000000000    0.1713711663555445 H+
   0.1335015000000000    0.2500000000000000    0.1713711663555445 H+
   0.6335014999999999    0.7500000000000000    0.1713711663555445 H+
   0.3462020000000000    0.2500000000000000    0.1954258137994111 H+
   0.3462020000000000    0.7500000000000000    0.1954258137994111 H+
   0.8462019999999999    0.2500000000000000    0.1954258137994111 H+
   0.8462019999999999    0.7500000000000000    0.1954258137994111 H+
   0.1335015000000000    0.7500000000000000    0.2194804612432777 H+
   0.6335014999999999    0.2500000000000000    0.2194804612432777 H+
   0.6335014999999999    0.7500000000000000    0.2194804612432777 H+
   0.1335015000000000    0.2500000000000000    0.2194804612432777 H+
   0.7592245000000000    0.7500000000000000    0.2323107693398860 H+
   0.2592245000000000    0.2500000000000000    0.2323107693398861 H+
   0.2592245000000000    0.7500000000000000    0.2323107693398861 H+
   0.7592245000000000    0.2500000000000000    0.2323107693398861 H+
   0.2592245000000000    0.2500000000000000    0.2780059143736531 H+
   0.2592245000000000    0.7500000000000000    0.2780059143736531 H+
   0.7592245000000000    0.2500000000000000    0.2780059143736531 H+
   0.7592245000000000    0.7500000000000000    0.2780059143736531 H+
   0.1335015000000000    0.2500000000000000    0.2908362224702614 H+
   0.1335015000000000    0.7500000000000000    0.2908362224702614 H+
   0.6335014999999999    0.2500000000000000    0.2908362224702614 H+
   0.6335014999999999    0.7500000000000000    0.2908362224702614 H+
   0.8462019999999999    0.7500000000000000    0.3148908699141280 H+
   0.3462020000000000    0.2500000000000000    0.3148908699141280 H+
   0.3462020000000000    0.7500000000000000    0.3148908699141280 H+
   0.8462019999999999    0.2500000000000000    0.3148908699141280 H+
   0.1335015000000000    0.2500000000000000    0.3389455173579946 H+
   0.1335015000000000    0.7500000000000000    0.3389455173579946 H+
   0.6335014999999999    0.2500000000000000    0.3389455173579946 H+
   0.6335014999999999    0.7500000000000000    0.3389455173579946 H+
   0.2592245000000000    0.7500000000000000    0.3517758254546029 H+
   0.7592245000000000    0.2500000000000000    0.3517758254546029 H+
   0.2592245000000000    0.2500000000000000    0.3517758254546030 H+
   0.7592245000000000    0.7500000000000000    0.3517758254546030 H+
   0.2592245000000000    0.2500000000000000    0.3974709704883699 H+
   0.2592245000000000    0.7500000000000000    0.3974709704883699 H+
   0.7592245000000000    0.2500000000000000    0.3974709704883699 H+
   0.7592245000000000    0.7500000000000000    0.3974709704883699 H+
   0.6335014999999999    0.7500000000000000    0.4103012785849782 H+
   0.1335015000000000    0.2500000000000000    0.4103012785849783 H+
   0.1335015000000000    0.7500000000000000    0.4103012785849783 H+
   0.6335014999999999    0.2500000000000000    0.4103012785849783 H+
   0.3462020000000000    0.7500000000000000    0.4343559260288448 H+
   0.8462019999999999    0.2500000000000000    0.4343559260288448 H+
   0.8462019999999999    0.7500000000000000    0.4343559260288448 H+
   0.3462020000000000    0.2500000000000000    0.4343559260288449 H+
   0.1335015000000000    0.7500000000000000    0.4584105734727114 H+
   0.6335014999999999    0.2500000000000000    0.4584105734727114 H+
   0.6335014999999999    0.7500000000000000    0.4584105734727114 H+
   0.1335015000000000    0.2500000000000000    0.4584105734727115 H+
   0.7592245000000000    0.7500000000000000    0.4712408815693198 H+
   0.2592245000000000    0.7500000000000000    0.4712408815693198 H+
   0.7592245000000000    0.2500000000000000    0.4712408815693198 H+
   0.2592245000000000    0.2500000000000000    0.4712408815693199 H+
   0.2592245000000000    0.2500000000000000    0.5169360266030868 H+
   0.2592245000000000    0.7500000000000000    0.5169360266030868 H+
   0.7592245000000000    0.2500000000000000    0.5169360266030868 H+
   0.7592245000000000    0.7500000000000000    0.5169360266030868 H+
   0.1335015000000000    0.2500000000000000    0.5297663346996951 H+
   0.1335015000000000    0.7500000000000000    0.5297663346996951 H+
   0.6335014999999999    0.2500000000000000    0.5297663346996951 H+
   0.6335014999999999    0.7500000000000000    0.5297663346996951 H+
   0.3462020000000000    0.2500000000000000    0.5538209821435618 H+
   0.3462020000000000    0.7500000000000000    0.5538209821435618 H+
   0.8462019999999999    0.2500000000000000    0.5538209821435618 H+
   0.8462019999999999    0.7500000000000000    0.5538209821435618 H+
   0.1335015000000000    0.2500000000000000    0.5778756295874283 H+
   0.1335015000000000    0.7500000000000000    0.5778756295874283 H+
   0.6335014999999999    0.2500000000000000    0.5778756295874283 H+
   0.6335014999999999    0.7500000000000000    0.5778756295874283 H+
   0.2592245000000000    0.2500000000000000    0.5907059376840366 H+
   0.2592245000000000    0.7500000000000000    0.5907059376840366 H+
   0.7592245000000000    0.2500000000000000    0.5907059376840366 H+
   0.7592245000000000    0.7500000000000000    0.5907059376840366 H+
   0.2592245000000000    0.2500000000000000    0.6364010827178036 H+
   0.2592245000000000    0.7500000000000000    0.6364010827178036 H+
   0.7592245000000000    0.2500000000000000    0.6364010827178036 H+
   0.7592245000000000    0.7500000000000000    0.6364010827178036 H+
   0.1335015000000000    0.2500000000000000    0.6492313908144122 H+
   0.1335015000000000    0.7500000000000000    0.6492313908144122 H+
   0.6335014999999999    0.2500000000000000    0.6492313908144122 H+
   0.6335014999999999    0.7500000000000000    0.6492313908144122 H+
   0.3462020000000000    0.2500000000000000    0.6732860382582787 H+
   0.3462020000000000    0.7500000000000000    0.6732860382582787 H+
   0.8462019999999999    0.2500000000000000    0.6732860382582787 H+
   0.8462019999999999    0.7500000000000000    0.6732860382582787 H+
   0.1335015000000000    0.2500000000000000    0.6973406857021452 H+
   0.1335015000000000    0.7500000000000000    0.6973406857021452 H+
   0.6335014999999999    0.2500000000000000    0.6973406857021452 H+
   0.6335014999999999    0.7500000000000000    0.6973406857021452 H+
   0.2592245000000000    0.2500000000000000    0.7101709937987534 H+
   0.2592245000000000    0.7500000000000000    0.7101709937987535 H+
   0.7592245000000000    0.2500000000000000    0.7101709937987535 H+
   0.7592245000000000    0.7500000000000000    0.7101709937987535 H+
   0.4824370000000001    0.5000000000000000    0.2551583418567696 Pb2+
   0.9824369999999999    0.0000000000000000    0.2551583418567696 Pb2+
   0.9824369999999999    0.5000000000000000    0.2551583418567696 Pb2+
   0.4824370000000000    0.0000000000000000    0.2551583418567696 Pb2+
   0.4824370000000000    0.0000000000000000    0.3746233979714864 Pb2+
   0.4824370000000001    0.5000000000000000    0.3746233979714864 Pb2+
   0.9824369999999999    0.0000000000000000    0.3746233979714864 Pb2+
   0.9824369999999999    0.5000000000000000    0.3746233979714864 Pb2+
   0.4824370000000000    0.0000000000000000    0.4940884540862034 Pb2+
   0.4824370000000001    0.5000000000000000    0.4940884540862034 Pb2+
   0.9824369999999999    0.0000000000000000    0.4940884540862034 Pb2+
   0.9824369999999999    0.5000000000000000    0.4940884540862034 Pb2+
   0.4824370000000000    0.0000000000000000    0.6135535102009201 Pb2+
   0.4824370000000001    0.5000000000000000    0.6135535102009201 Pb2+
   0.9824369999999999    0.0000000000000000    0.6135535102009201 Pb2+
   0.9824369999999999    0.5000000000000000    0.6135535102009202 Pb2+
   0.7599155000000001    0.2500000000000000    0.1954258137994111 C2+
   0.2599155000000000    0.2500000000000000    0.1954258137994111 C2+
   0.2599155000000000    0.7500000000000000    0.1954258137994111 C2+
   0.7599155000000001    0.7500000000000000    0.1954258137994111 C2+
   0.2599155000000000    0.2500000000000000    0.3148908699141280 C2+
   0.7599155000000001    0.7500000000000000    0.3148908699141280 C2+
   0.2599155000000000    0.7500000000000000    0.3148908699141280 C2+
   0.7599155000000001    0.2500000000000000    0.3148908699141280 C2+
   0.2599155000000000    0.7500000000000000    0.4343559260288448 C2+
   0.7599155000000001    0.2500000000000000    0.4343559260288448 C2+
   0.7599155000000001    0.7500000000000000    0.4343559260288448 C2+
   0.2599155000000000    0.2500000000000000    0.4343559260288449 C2+
   0.2599155000000000    0.7500000000000000    0.5538209821435618 C2+
   0.7599155000000001    0.2500000000000000    0.5538209821435618 C2+
   0.7599155000000001    0.7500000000000000    0.5538209821435618 C2+
   0.2599155000000000    0.2500000000000000    0.5538209821435619 C2+
   0.2599155000000000    0.2500000000000000    0.6732860382582787 C2+
   0.2599155000000000    0.7500000000000000    0.6732860382582787 C2+
   0.7599155000000001    0.2500000000000000    0.6732860382582787 C2+
   0.7599155000000001    0.7500000000000000    0.6732860382582787 C2+
   0.4918860000000001    0.5000000000000000    0.1954258137994111 I-
   0.9918859999999999    0.0000000000000000    0.1954258137994111 I-
   0.4918860000000000    0.0000000000000000    0.1954258137994111 I-
   0.9918859999999999    0.5000000000000000    0.1954258137994111 I-
   0.2313650000000000    0.5000000000000000    0.2551583418567696 I-
   0.7313649999999999    0.0000000000000000    0.2551583418567696 I-
   0.7313649999999999    0.5000000000000000    0.2551583418567696 I-
   0.4602915000000000    0.2500000000000000    0.2551583418567696 I-
   0.4602915000000001    0.7500000000000000    0.2551583418567696 I-
   0.9602915000000000    0.2500000000000000    0.2551583418567696 I-
   0.9602915000000000    0.7500000000000000    0.2551583418567696 I-
   0.2313650000000000    0.0000000000000000    0.2551583418567696 I-
   0.4918860000000000    0.0000000000000000    0.3148908699141280 I-
   0.9918859999999999    0.5000000000000000    0.3148908699141280 I-
   0.4918860000000001    0.5000000000000000    0.3148908699141280 I-
   0.9918859999999999    0.0000000000000000    0.3148908699141280 I-
   0.2313650000000000    0.5000000000000000    0.3746233979714864 I-
   0.7313649999999999    0.0000000000000000    0.3746233979714864 I-
   0.4602915000000000    0.2500000000000000    0.3746233979714864 I-
   0.7313649999999999    0.5000000000000000    0.3746233979714864 I-
   0.4602915000000001    0.7500000000000000    0.3746233979714864 I-
   0.9602915000000000    0.2500000000000000    0.3746233979714864 I-
   0.9602915000000000    0.7500000000000000    0.3746233979714864 I-
   0.2313650000000000    0.0000000000000000    0.3746233979714865 I-
   0.4918860000000001    0.5000000000000000    0.4343559260288448 I-
   0.9918859999999999    0.0000000000000000    0.4343559260288448 I-
   0.9918859999999999    0.5000000000000000    0.4343559260288448 I-
   0.4918860000000000    0.0000000000000000    0.4343559260288449 I-
   0.2313650000000000    0.0000000000000000    0.4940884540862034 I-
   0.2313650000000000    0.5000000000000000    0.4940884540862034 I-
   0.7313649999999999    0.0000000000000000    0.4940884540862034 I-
   0.7313649999999999    0.5000000000000000    0.4940884540862034 I-
   0.4602915000000000    0.2500000000000000    0.4940884540862034 I-
   0.4602915000000001    0.7500000000000000    0.4940884540862034 I-
   0.9602915000000000    0.2500000000000000    0.4940884540862034 I-
   0.9602915000000000    0.7500000000000000    0.4940884540862034 I-
   0.4918860000000001    0.5000000000000000    0.5538209821435618 I-
   0.9918859999999999    0.0000000000000000    0.5538209821435618 I-
   0.9918859999999999    0.5000000000000000    0.5538209821435618 I-
   0.4918860000000000    0.0000000000000000    0.5538209821435619 I-
   0.2313650000000000    0.0000000000000000    0.6135535102009201 I-
   0.2313650000000000    0.5000000000000000    0.6135535102009201 I-
   0.7313649999999999    0.0000000000000000    0.6135535102009201 I-
   0.4602915000000000    0.2500000000000000    0.6135535102009201 I-
   0.7313649999999999    0.5000000000000000    0.6135535102009202 I-
   0.4602915000000001    0.7500000000000000    0.6135535102009202 I-
   0.9602915000000000    0.2500000000000000    0.6135535102009202 I-
   0.9602915000000000    0.7500000000000000    0.6135535102009202 I-
   0.4918860000000000    0.0000000000000000    0.6732860382582787 I-
   0.4918860000000001    0.5000000000000000    0.6732860382582787 I-
   0.9918859999999999    0.0000000000000000    0.6732860382582787 I-
   0.9918859999999999    0.5000000000000000    0.6732860382582787 I-
   0.2133540000000001    0.7500000000000000    0.1739015557091104 N3-
   0.7133540000000000    0.2500000000000000    0.1739015557091104 N3-
   0.7133540000000000    0.7500000000000000    0.1739015557091104 N3-
   0.2133540000000001    0.2500000000000000    0.1739015557091104 N3-
   0.2133540000000001    0.2500000000000000    0.2169500718897119 N3-
   0.2133540000000001    0.7500000000000000    0.2169500718897119 N3-
   0.7133540000000000    0.2500000000000000    0.2169500718897119 N3-
   0.7133540000000000    0.7500000000000000    0.2169500718897119 N3-
   0.2133540000000001    0.7500000000000000    0.2933666118238272 N3-
   0.7133540000000000    0.2500000000000000    0.2933666118238272 N3-
   0.7133540000000000    0.7500000000000000    0.2933666118238272 N3-
   0.2133540000000001    0.2500000000000000    0.2933666118238272 N3-
   0.2133540000000001    0.2500000000000000    0.3364151280044288 N3-
   0.2133540000000001    0.7500000000000000    0.3364151280044288 N3-
   0.7133540000000000    0.2500000000000000    0.3364151280044288 N3-
   0.7133540000000000    0.7500000000000000    0.3364151280044288 N3-
   0.7133540000000000    0.7500000000000000    0.4128316679385440 N3-
   0.2133540000000001    0.2500000000000000    0.4128316679385441 N3-
   0.2133540000000001    0.7500000000000000    0.4128316679385441 N3-
   0.7133540000000000    0.2500000000000000    0.4128316679385441 N3-
   0.2133540000000001    0.2500000000000000    0.4558801841191456 N3-
   0.2133540000000001    0.7500000000000000    0.4558801841191456 N3-
   0.7133540000000000    0.2500000000000000    0.4558801841191456 N3-
   0.7133540000000000    0.7500000000000000    0.4558801841191457 N3-
   0.2133540000000001    0.2500000000000000    0.5322967240532610 N3-
   0.2133540000000001    0.7500000000000000    0.5322967240532610 N3-
   0.7133540000000000    0.2500000000000000    0.5322967240532610 N3-
   0.7133540000000000    0.7500000000000000    0.5322967240532610 N3-
   0.2133540000000001    0.2500000000000000    0.5753452402338626 N3-
   0.2133540000000001    0.7500000000000000    0.5753452402338626 N3-
   0.7133540000000000    0.2500000000000000    0.5753452402338626 N3-
   0.7133540000000000    0.7500000000000000    0.5753452402338626 N3-
   0.2133540000000001    0.2500000000000000    0.6517617801679777 N3-
   0.2133540000000001    0.7500000000000000    0.6517617801679777 N3-
   0.7133540000000000    0.2500000000000000    0.6517617801679777 N3-
   0.7133540000000000    0.7500000000000000    0.6517617801679778 N3-
   0.2133540000000001    0.2500000000000000    0.6948102963485794 N3-
   0.2133540000000001    0.7500000000000000    0.6948102963485794 N3-
   0.7133540000000000    0.2500000000000000    0.6948102963485794 N3-
   0.7133540000000000    0.7500000000000000    0.6948102963485794 N3-
