Ti60 H168 Pb28 C28 I84 N28 O120
1.0
  20.0565134149337041    0.0000000000000000    0.0000000000000012
   5.3227719102389406   28.7736212007485364    0.0000000000000018
   0.0000000000000000    0.0000000000000000   38.9458026870475891
Ti H Pb C I N O
60 168 28 28 84 28 120
direct
   0.7217918620991184    0.8511893815640623    0.2918026051092821 Ti4+
   0.4551251954324517   -0.0821439517692710    0.2918026051092821 Ti4+
   0.1884585287657848   -0.0154772851026044    0.2918026051092821 Ti4+
   0.8551251954324517    0.3178560482307289    0.2918026051092822 Ti4+
   0.7884585287657851    0.5845227148973956    0.2918026051092822 Ti4+
   0.6551251954324516    0.1178560482307291    0.2918026051092822 Ti4+
   0.5884585287657851    0.3845227148973956    0.2918026051092822 Ti4+
   0.3884585287657848    0.1845227148973957    0.2918026051092822 Ti4+
   0.3217918620991183    0.4511893815640623    0.2918026051092822 Ti4+
   0.2551251954324515    0.7178560482307289    0.2918026051092822 Ti4+
   1.0551251954324514    0.5178560482307289    0.2918026051092822 Ti4+
   0.9884585287657847    0.7845227148973956    0.2918026051092822 Ti4+
   0.9217918620991180    0.0511893815640624    0.2918026051092822 Ti4+
   0.5217918620991187    0.6511893815640623    0.2918026051092822 Ti4+
   1.1217918620991181    0.2511893815640623    0.2918026051092822 Ti4+
   1.1459053145752487    0.0855864652305194    0.3147555226416794 Ti4+
   1.0792386479085823    0.3522531318971860    0.3147555226416794 Ti4+
   1.0125719812419156    0.6189197985638527    0.3147555226416794 Ti4+
   0.8792386479085822    0.1522531318971861    0.3147555226416795 Ti4+
   0.8125719812419158    0.4189197985638526    0.3147555226416795 Ti4+
   0.7459053145752490    0.6855864652305192    0.3147555226416795 Ti4+
   0.6792386479085820   -0.0477468681028140    0.3147555226416795 Ti4+
   0.6125719812419155    0.2189197985638527    0.3147555226416795 Ti4+
   0.5459053145752487    0.4855864652305192    0.3147555226416795 Ti4+
   0.4792386479085821    0.7522531318971860    0.3147555226416795 Ti4+
   0.4125719812419154    0.0189197985638527    0.3147555226416795 Ti4+
   0.3459053145752487    0.2855864652305194    0.3147555226416795 Ti4+
   0.2792386479085819    0.5522531318971859    0.3147555226416795 Ti4+
   0.2125719812419153   -0.1810802014361473    0.3147555226416795 Ti4+
   0.9459053145752490   -0.1144135347694807    0.3147555226416796 Ti4+
   0.9033521003847130    0.4866502155636428    0.3377084401740768 Ti4+
   0.8366854337180462    0.7533168822303096    0.3377084401740768 Ti4+
   0.3700187670513793    0.6199835488969762    0.3377084401740768 Ti4+
   0.9700187670513795    0.2199835488969762    0.3377084401740768 Ti4+
   0.7033521003847129    0.2866502155636430    0.3377084401740768 Ti4+
   0.5700187670513795   -0.1800164511030238    0.3377084401740768 Ti4+
   0.5033521003847126    0.0866502155636430    0.3377084401740768 Ti4+
   0.4366854337180461    0.3533168822303096    0.3377084401740768 Ti4+
   0.3033521003847128   -0.1133497844363572    0.3377084401740768 Ti4+
   1.1700187670513793    0.4199835488969762    0.3377084401740768 Ti4+
   1.0366854337180458   -0.0466831177696903    0.3377084401740768 Ti4+
   0.7700187670513796    0.0199835488969763    0.3377084401740769 Ti4+
   0.6366854337180464    0.5533168822303095    0.3377084401740769 Ti4+
   1.2366854337180460    0.1533168822303096    0.3377084401740769 Ti4+
   1.1033521003847127    0.6866502155636427    0.3377084401740769 Ti4+
   1.2607988861941766   -0.0122860341032334    0.3606613577064741 Ti4+
   1.1941322195275101    0.2543806325634332    0.3606613577064741 Ti4+
   1.1274655528608435    0.5210472992300998    0.3606613577064741 Ti4+
   1.0607988861941768   -0.2122860341032334    0.3606613577064741 Ti4+
   0.9941322195275102    0.0543806325634333    0.3606613577064741 Ti4+
   0.9274655528608435    0.3210472992300999    0.3606613577064741 Ti4+
   0.6607988861941766    0.3877139658967665    0.3606613577064741 Ti4+
   0.5274655528608433   -0.0789527007699001    0.3606613577064741 Ti4+
   0.4607988861941766    0.1877139658967666    0.3606613577064741 Ti4+
   0.3274655528608432   -0.2789527007699000    0.3606613577064741 Ti4+
   0.8607988861941769    0.5877139658967665    0.3606613577064742 Ti4+
   0.7941322195275100   -0.1456193674365668    0.3606613577064742 Ti4+
   0.7274655528608434    0.1210472992301000    0.3606613577064742 Ti4+
   0.5941322195275101    0.6543806325634332    0.3606613577064742 Ti4+
   0.3941322195275099    0.4543806325634332    0.3606613577064742 Ti4+
   0.4850805714285715    0.4649361428571430    0.4978602846508419 H+
   0.6279377142857145    0.7506504285714284    0.4978602846508419 H+
   0.7707948571428573    0.0363647142857140    0.4978602846508419 H+
   0.9136520000000000    0.3220789999999999    0.4978602846508419 H+
   0.0565091428571430    0.6077932857142857    0.4978602846508419 H+
   0.1993662857142857    0.8935075714285714    0.4978602846508419 H+
   0.2336837142857142    0.4621424285714286    0.4978602846508419 H+
   0.3765408571428572    0.7478567142857142    0.4978602846508419 H+
   0.5193980000000000    0.0335709999999998    0.4978602846508419 H+
   0.6622551428571428    0.3192852857142858    0.4978602846508419 H+
   0.8051122857142856    0.6049995714285714    0.4978602846508419 H+
   0.9479694285714286    0.8907138571428570    0.4978602846508419 H+
   0.3422234285714286    0.1792218571428573    0.4978602846508420 H+
   0.0908265714285713    0.1764281428571429    0.4978602846508420 H+
   0.3800259999999999    0.2543160000000000    0.4993964513394771 H+
   0.5228831428571430    0.5400302857142857    0.4993964513394771 H+
   0.6657402857142859    0.8257445714285713    0.4993964513394771 H+
   0.8085974285714286    0.1114588571428572    0.4993964513394771 H+
   0.9514545714285715    0.3971731428571429    0.4993964513394771 H+
   0.0943117142857143    0.6828874285714286    0.4993964513394771 H+
   0.2371688571428572    0.9686017142857143    0.4993964513394771 H+
   0.1963191428571428    0.3869022857142858    0.4993964513394771 H+
   0.3391762857142857    0.6726165714285715    0.4993964513394771 H+
   0.4820334285714286    0.9583308571428569    0.4993964513394771 H+
   0.6248905714285713    0.2440451428571429    0.4993964513394771 H+
   0.7677477142857143    0.5297594285714284    0.4993964513394771 H+
   0.9106048571428573    0.8154737142857142    0.4993964513394771 H+
   0.0534620000000000    0.1011880000000001    0.4993964513394771 H+
   0.7100170000000001    0.0798819999999999    0.5209074450743325 H+
   0.1385884285714287    0.9370248571428571    0.5209074450743325 H+
   0.4377792857142856    0.2136175714285715    0.5209074450743326 H+
   0.5806364285714286    0.4993318571428571    0.5209074450743326 H+
   0.7234935714285715    0.7850461428571427    0.5209074450743326 H+
   0.8663507142857144    0.0707604285714286    0.5209074450743326 H+
   0.0092078571428571    0.3564747142857144    0.5209074450743326 H+
   0.1520650000000000    0.6421889999999999    0.5209074450743326 H+
   0.2949221428571428    0.9279032857142857    0.5209074450743326 H+
   0.2724558571428571    0.3829707142857143    0.5209074450743326 H+
   0.4153130000000000    0.6686850000000000    0.5209074450743326 H+
   0.5581701428571431    0.9543992857142856    0.5209074450743326 H+
   0.7010272857142857    0.2401135714285715    0.5209074450743326 H+
   0.8438844285714288    0.5258278571428571    0.5209074450743326 H+
   0.9867415714285717    0.8115421428571428    0.5209074450743326 H+
   0.1295987142857143    0.0972564285714286    0.5209074450743326 H+
   0.4243027142857143    0.5084534285714285    0.5209074450743326 H+
   0.5671598571428573    0.7941677142857142    0.5209074450743326 H+
   0.8528741428571429    0.3655962857142858    0.5209074450743326 H+
   0.9957312857142858    0.6513105714285714    0.5209074450743326 H+
   0.2814455714285715    0.2227391428571431    0.5209074450743326 H+
   0.5815418571428572    0.3229317142857144    0.5209074450743326 H+
   0.7243990000000000    0.6086459999999999    0.5209074450743326 H+
   0.8672561428571429    0.8943602857142855    0.5209074450743326 H+
   0.0101132857142857    0.1800745714285715    0.5209074450743326 H+
   0.1529704285714286    0.4657888571428571    0.5209074450743326 H+
   0.2958275714285714    0.7515031428571428    0.5209074450743326 H+
   0.4386847142857143    0.0372174285714287    0.5209074450743326 H+
   0.0943117142857143    0.6828874285714286    0.5424184388091881 H+
   0.3800259999999999    0.2543160000000000    0.5424184388091882 H+
   0.5228831428571430    0.5400302857142857    0.5424184388091882 H+
   0.6657402857142859    0.8257445714285713    0.5424184388091882 H+
   0.8085974285714286    0.1114588571428572    0.5424184388091882 H+
   0.9514545714285715    0.3971731428571429    0.5424184388091882 H+
   0.2371688571428572    0.9686017142857143    0.5424184388091882 H+
   0.1963191428571428    0.3869022857142858    0.5424184388091882 H+
   0.3391762857142857    0.6726165714285715    0.5424184388091882 H+
   0.4820334285714286    0.9583308571428569    0.5424184388091882 H+
   0.6248905714285713    0.2440451428571429    0.5424184388091882 H+
   0.7677477142857143    0.5297594285714284    0.5424184388091882 H+
   0.9106048571428573    0.8154737142857142    0.5424184388091882 H+
   0.0534620000000000    0.1011880000000001    0.5424184388091882 H+
   0.4850805714285715    0.4649361428571430    0.5439546054978233 H+
   0.6279377142857145    0.7506504285714284    0.5439546054978233 H+
   0.7707948571428573    0.0363647142857140    0.5439546054978233 H+
   0.9136520000000000    0.3220789999999999    0.5439546054978233 H+
   0.0565091428571430    0.6077932857142857    0.5439546054978233 H+
   0.1993662857142857    0.8935075714285714    0.5439546054978233 H+
   0.3422234285714286    0.1792218571428573    0.5439546054978233 H+
   0.2336837142857142    0.4621424285714286    0.5439546054978233 H+
   0.3765408571428572    0.7478567142857142    0.5439546054978233 H+
   0.5193980000000000    0.0335709999999998    0.5439546054978233 H+
   0.6622551428571428    0.3192852857142858    0.5439546054978233 H+
   0.8051122857142856    0.6049995714285714    0.5439546054978233 H+
   0.9479694285714286    0.8907138571428570    0.5439546054978233 H+
   0.0908265714285713    0.1764281428571428    0.5439546054978233 H+
   0.3720622857142857    0.2493495714285714    0.6642922119135888 H+
   0.5149194285714287    0.5350638571428572    0.6642922119135889 H+
   0.6577765714285717    0.8207781428571428    0.6642922119135889 H+
   0.8006337142857144    0.1064924285714286    0.6642922119135889 H+
   0.9434908571428571    0.3922067142857143    0.6642922119135889 H+
   0.0863480000000001    0.6779210000000000    0.6642922119135889 H+
   0.2292051428571429    0.9636352857142856    0.6642922119135889 H+
   0.6234591428571429    0.2521432857142858    0.6642922119135889 H+
   0.7663162857142858    0.5378575714285714    0.6642922119135889 H+
   0.9091734285714288    0.8235718571428570    0.6642922119135889 H+
   0.0520305714285714    0.1092861428571429    0.6642922119135889 H+
   0.1948877142857143    0.3950004285714286    0.6642922119135889 H+
   0.3377448571428572    0.6807147142857143    0.6642922119135889 H+
   0.4806020000000000    0.9664290000000000    0.6642922119135889 H+
   0.4771168571428572    0.4599697142857142    0.6658283786022240 H+
   0.7628311428571430    0.0313982857142854    0.6658283786022240 H+
   0.9056882857142858    0.3171125714285714    0.6658283786022240 H+
   0.1914025714285715    0.8885411428571428    0.6658283786022240 H+
   0.3342597142857144    0.1742554285714286    0.6658283786022240 H+
   0.6199740000000001    0.7456839999999999    0.6658283786022241 H+
   0.0485454285714286    0.6028268571428571    0.6658283786022241 H+
   0.6608237142857144    0.3273834285714285    0.6658283786022241 H+
   0.8036808571428572    0.6130977142857142    0.6658283786022241 H+
   0.9465380000000002    0.8988119999999998    0.6658283786022241 H+
   0.0893951428571429    0.1845262857142858    0.6658283786022241 H+
   0.2322522857142857    0.4702405714285714    0.6658283786022241 H+
   0.3751094285714286    0.7559548571428572    0.6658283786022241 H+
   0.5179665714285716    0.0416691428571429    0.6658283786022241 H+
   0.4193635714285715    0.5006681428571429    0.6873393723370795 H+
   0.5622207142857143    0.7863824285714285    0.6873393723370795 H+
   0.7050778571428572    0.0720967142857141    0.6873393723370795 H+
   0.8479350000000000    0.3578110000000000    0.6873393723370795 H+
   0.9907921428571428    0.6435252857142858    0.6873393723370795 H+
   0.1336492857142856    0.9292395714285714    0.6873393723370795 H+
   0.2765064285714285    0.2149538571428571    0.6873393723370795 H+
   0.5846870000000002    0.3313150000000000    0.6873393723370795 H+
   0.7275441428571430    0.6170292857142856    0.6873393723370795 H+
   0.8704012857142860    0.9027435714285712    0.6873393723370795 H+
   0.0132584285714286    0.1884578571428572    0.6873393723370795 H+
   0.1561155714285714    0.4741721428571428    0.6873393723370795 H+
   0.2989727142857144    0.7598864285714285    0.6873393723370795 H+
   0.4418298571428573    0.0456007142857145    0.6873393723370795 H+
   0.4328401428571429    0.2058322857142857    0.6873393723370795 H+
   0.5756972857142858    0.4915465714285714    0.6873393723370795 H+
   0.7185544285714288    0.7772608571428570    0.6873393723370795 H+
   0.8614115714285715    0.0629751428571429    0.6873393723370795 H+
   0.0042687142857143    0.3486894285714285    0.6873393723370795 H+
   0.1471258571428571    0.6344037142857143    0.6873393723370795 H+
   0.2899830000000001    0.9201180000000000    0.6873393723370795 H+
   0.2756010000000000    0.3913540000000000    0.6873393723370795 H+
   0.4184581428571429    0.6770682857142856    0.6873393723370795 H+
   0.5613152857142858    0.9627825714285712    0.6873393723370795 H+
   0.7041724285714285    0.2484968571428571    0.6873393723370795 H+
   0.8470295714285714    0.5342111428571429    0.6873393723370795 H+
   0.9898867142857143    0.8199254285714285    0.6873393723370795 H+
   0.1327438571428572    0.1056397142857144    0.6873393723370795 H+
   0.8036808571428572    0.6130977142857142    0.7088503660719350 H+
   0.2322522857142857    0.4702405714285714    0.7088503660719350 H+
   0.4771168571428572    0.4599697142857142    0.7088503660719352 H+
   0.6199740000000001    0.7456839999999999    0.7088503660719352 H+
   0.7628311428571430    0.0313982857142854    0.7088503660719352 H+
   0.9056882857142858    0.3171125714285714    0.7088503660719352 H+
   0.0485454285714286    0.6028268571428571    0.7088503660719352 H+
   0.1914025714285715    0.8885411428571428    0.7088503660719352 H+
   0.3342597142857144    0.1742554285714286    0.7088503660719352 H+
   0.6608237142857144    0.3273834285714285    0.7088503660719352 H+
   0.9465380000000002    0.8988119999999998    0.7088503660719352 H+
   0.0893951428571429    0.1845262857142858    0.7088503660719352 H+
   0.3751094285714286    0.7559548571428572    0.7088503660719352 H+
   0.5179665714285716    0.0416691428571429    0.7088503660719352 H+
   0.3720622857142857    0.2493495714285714    0.7103865327605703 H+
   0.5149194285714287    0.5350638571428572    0.7103865327605703 H+
   0.6577765714285717    0.8207781428571428    0.7103865327605703 H+
   0.8006337142857144    0.1064924285714286    0.7103865327605703 H+
   0.9434908571428571    0.3922067142857142    0.7103865327605703 H+
   0.0863480000000001    0.6779210000000000    0.7103865327605703 H+
   0.2292051428571429    0.9636352857142856    0.7103865327605703 H+
   0.6234591428571429    0.2521432857142857    0.7103865327605703 H+
   0.7663162857142858    0.5378575714285714    0.7103865327605703 H+
   0.9091734285714288    0.8235718571428570    0.7103865327605703 H+
   0.0520305714285714    0.1092861428571429    0.7103865327605703 H+
   0.1948877142857143    0.3950004285714286    0.7103865327605703 H+
   0.3377448571428572    0.6807147142857143    0.7103865327605703 H+
   0.4806020000000000    0.9664290000000000    0.7103865327605703 H+
   0.4285714285714285    0.3571428571428572    0.4376914814429591 Pb2+
   0.8571428571428571    0.2142857142857143    0.4376914814429591 Pb2+
   0.5714285714285716    0.6428571428571429    0.4376914814429591 Pb2+
   0.7142857142857144    0.9285714285714285    0.4376914814429591 Pb2+
  -0.0000000000000000    0.5000000000000000    0.4376914814429591 Pb2+
   0.1428571428571429    0.7857142857142856    0.4376914814429591 Pb2+
   0.2857142857142857    0.0714285714285715    0.4376914814429591 Pb2+
   0.5714285714285714    0.1428571428571429    0.4376914814429591 Pb2+
  -0.0000000000000000    0.0000000000000001    0.4376914814429591 Pb2+
   0.7142857142857144    0.4285714285714285    0.4376914814429592 Pb2+
   0.8571428571428572    0.7142857142857140    0.4376914814429592 Pb2+
   0.1428571428571429    0.2857142857142858    0.4376914814429592 Pb2+
   0.2857142857142858    0.5714285714285714    0.4376914814429592 Pb2+
   0.4285714285714286    0.8571428571428571    0.4376914814429592 Pb2+
   0.4285714285714285    0.3571428571428572    0.6041234087057061 Pb2+
   0.5714285714285716    0.6428571428571429    0.6041234087057061 Pb2+
   0.7142857142857144    0.9285714285714285    0.6041234087057061 Pb2+
   0.8571428571428571    0.2142857142857143    0.6041234087057061 Pb2+
  -0.0000000000000000    0.5000000000000000    0.6041234087057061 Pb2+
   0.1428571428571429    0.7857142857142856    0.6041234087057061 Pb2+
   0.2857142857142858    0.0714285714285714    0.6041234087057061 Pb2+
   0.5714285714285714    0.1428571428571429    0.6041234087057061 Pb2+
   0.7142857142857144    0.4285714285714285    0.6041234087057061 Pb2+
   0.8571428571428572    0.7142857142857140    0.6041234087057061 Pb2+
  -0.0000000000000000    0.0000000000000000    0.6041234087057061 Pb2+
   0.1428571428571429    0.2857142857142858    0.6041234087057061 Pb2+
   0.2857142857142858    0.5714285714285714    0.6041234087057061 Pb2+
   0.4285714285714287    0.8571428571428571    0.6041234087057061 Pb2+
   0.7629675714285716    0.0582901428571428    0.5209074450743325 C2-
   0.1915390000000001    0.9154329999999999    0.5209074450743325 C2-
   0.4772532857142857    0.4868615714285714    0.5209074450743326 C2-
   0.6201104285714287    0.7725758571428571    0.5209074450743326 C2-
   0.9058247142857145    0.3440044285714286    0.5209074450743326 C2-
   0.0486818571428571    0.6297187142857141    0.5209074450743326 C2-
   0.3343961428571428    0.2011472857142856    0.5209074450743326 C2-
   0.6378710000000001    0.3080970000000002    0.5209074450743326 C2-
   0.7807281428571430    0.5938112857142858    0.5209074450743326 C2-
   0.9235852857142859    0.8795255714285711    0.5209074450743326 C2-
   0.0664424285714286    0.1652398571428572    0.5209074450743326 C2-
   0.2092995714285715    0.4509541428571429    0.5209074450743326 C2-
   0.3521567142857143    0.7366684285714286    0.5209074450743326 C2-
   0.4950138571428572    0.0223827142857143    0.5209074450743326 C2-
   0.3798895714285714    0.2274241428571429    0.6873393723370795 C2-
   0.5227467142857144    0.5131384285714286    0.6873393723370795 C2-
   0.6656038571428572    0.7988527142857141    0.6873393723370795 C2-
   0.8084610000000000    0.0845670000000000    0.6873393723370795 C2-
   0.9513181428571430    0.3702812857142856    0.6873393723370795 C2-
   0.0941752857142857    0.6559955714285713    0.6873393723370795 C2-
   0.2370324285714285    0.9417098571428572    0.6873393723370795 C2-
   0.2192718571428571    0.4061887142857142    0.6873393723370795 C2-
   0.3621290000000001    0.6919029999999999    0.6873393723370795 C2-
   0.5049861428571429    0.9776172857142855    0.6873393723370795 C2-
   0.6478432857142857    0.2633315714285714    0.6873393723370795 C2-
   0.7907004285714285    0.5490458571428571    0.6873393723370795 C2-
   0.9335575714285715    0.8347601428571428    0.6873393723370795 C2-
   0.0764147142857143    0.1204744285714286    0.6873393723370795 C2-
   0.5364798571428572    0.2568937142857143    0.4450634172291352 I-
   0.6793370000000001    0.5426080000000000    0.4450634172291352 I-
   0.8221941428571431    0.8283222857142856    0.4450634172291352 I-
   0.9650512857142858    0.1140365714285715    0.4450634172291352 I-
   0.1079084285714285    0.3997508571428572    0.4450634172291352 I-
   0.2507655714285714    0.6854651428571429    0.4450634172291352 I-
   0.3936227142857143    0.9711794285714286    0.4450634172291352 I-
   0.3058624285714285    0.2956588571428572    0.4450634172291352 I-
   0.4487195714285715    0.5813731428571428    0.4450634172291352 I-
   0.5915767142857143    0.8670874285714284    0.4450634172291352 I-
   0.7344338571428570    0.1528017142857143    0.4450634172291352 I-
   0.8772910000000000    0.4385160000000001    0.4450634172291352 I-
   0.0201481428571428    0.7242302857142857    0.4450634172291352 I-
   0.1630052857142857    0.0099445714285716    0.4450634172291352 I-
   0.4141995714285713    0.3661321428571429    0.5209074450743326 I-
   0.5570567142857142    0.6518464285714284    0.5209074450743326 I-
   0.6999138571428573    0.9375607142857142    0.5209074450743326 I-
   0.8427710000000000    0.2232750000000001    0.5209074450743326 I-
   0.9856281428571428    0.5089892857142857    0.5209074450743326 I-
   0.1284852857142856    0.7947035714285714    0.5209074450743326 I-
   0.2713424285714285    0.0804178571428572    0.5209074450743326 I-
   0.6963150000000001    0.4303630000000000    0.5209074450743326 I-
   0.8391721428571429    0.7160772857142856    0.5209074450743326 I-
   0.9820292857142860    0.0017915714285712    0.5209074450743326 I-
   0.1248864285714286    0.2875058571428571    0.5209074450743326 I-
   0.2677435714285714    0.5732201428571428    0.5209074450743326 I-
   0.4106007142857143    0.8589344285714285    0.5209074450743326 I-
   0.5534578571428572    0.1446487142857143    0.5209074450743326 I-
   0.3058624285714285    0.2956588571428572    0.5967514729195299 I-
   0.5915767142857143    0.8670874285714284    0.5967514729195299 I-
   0.7344338571428570    0.1528017142857143    0.5967514729195299 I-
   0.8772910000000000    0.4385160000000001    0.5967514729195299 I-
   0.0201481428571428    0.7242302857142857    0.5967514729195299 I-
   0.1630052857142857    0.0099445714285716    0.5967514729195299 I-
   0.5364798571428572    0.2568937142857143    0.5967514729195300 I-
   0.6793370000000001    0.5426080000000000    0.5967514729195300 I-
   0.8221941428571431    0.8283222857142856    0.5967514729195300 I-
   0.9650512857142858    0.1140365714285715    0.5967514729195300 I-
   0.1079084285714286    0.3997508571428572    0.5967514729195300 I-
   0.2507655714285715    0.6854651428571429    0.5967514729195300 I-
   0.3936227142857143    0.9711794285714286    0.5967514729195300 I-
   0.4487195714285716    0.5813731428571428    0.5967514729195300 I-
   0.5512804285714286    0.4186268571428572    0.6114953444918821 I-
   0.8369947142857145    0.9900554285714285    0.6114953444918821 I-
   0.9798518571428572    0.2757697142857145    0.6114953444918821 I-
   0.2655661428571429    0.8471982857142858    0.6114953444918821 I-
   0.4084232857142858    0.1329125714285715    0.6114953444918821 I-
   0.3206630000000000    0.4573920000000000    0.6114953444918823 I-
   0.4635201428571429    0.7431062857142856    0.6114953444918823 I-
   0.6063772857142858    0.0288205714285715    0.6114953444918823 I-
   0.7492344285714285    0.3145348571428572    0.6114953444918823 I-
   0.8920915714285715    0.6002491428571428    0.6114953444918823 I-
   0.0349487142857143    0.8859634285714285    0.6114953444918823 I-
   0.1778058571428572    0.1716777142857142    0.6114953444918823 I-
   0.6941375714285717    0.7043411428571429    0.6114953444918823 I-
   0.1227090000000000    0.5614840000000000    0.6114953444918823 I-
   0.4429432857142858    0.3481535714285715    0.6873393723370795 I-
   0.5858004285714287    0.6338678571428571    0.6873393723370795 I-
   0.7286575714285717    0.9195821428571427    0.6873393723370795 I-
   0.8715147142857144    0.2052964285714286    0.6873393723370795 I-
   0.0143718571428571    0.4910107142857143    0.6873393723370795 I-
   0.1572290000000000    0.7767250000000000    0.6873393723370795 I-
   0.3000861428571429    0.0624392857142857    0.6873393723370795 I-
   0.1608278571428571    0.2839227142857143    0.6873393723370795 I-
   0.3036850000000000    0.5696370000000001    0.6873393723370795 I-
   0.4465421428571430    0.8553512857142855    0.6873393723370795 I-
   0.5893992857142856    0.1410655714285715    0.6873393723370795 I-
   0.7322564285714286    0.4267798571428571    0.6873393723370795 I-
   0.8751135714285716    0.7124941428571429    0.6873393723370795 I-
   0.0179707142857143    0.9982084285714286    0.6873393723370795 I-
   0.3206630000000000    0.4573920000000000    0.7631834001822769 I-
   0.4635201428571429    0.7431062857142856    0.7631834001822769 I-
   0.7492344285714285    0.3145348571428571    0.7631834001822769 I-
   0.8920915714285715    0.6002491428571428    0.7631834001822769 I-
   0.1778058571428572    0.1716777142857142    0.7631834001822769 I-
   0.6063772857142858    0.0288205714285715    0.7631834001822770 I-
   0.0349487142857143    0.8859634285714285    0.7631834001822770 I-
   0.5512804285714286    0.4186268571428571    0.7631834001822770 I-
   0.6941375714285717    0.7043411428571429    0.7631834001822770 I-
   0.8369947142857145    0.9900554285714285    0.7631834001822770 I-
   0.9798518571428572    0.2757697142857144    0.7631834001822770 I-
   0.1227090000000000    0.5614840000000000    0.7631834001822770 I-
   0.2655661428571429    0.8471982857142858    0.7631834001822770 I-
   0.4084232857142858    0.1329125714285715    0.7631834001822770 I-
   0.3865765714285714    0.2327621428571429    0.5209074450743326 N3-
   0.5294337142857144    0.5184764285714285    0.5209074450743326 N3-
   0.6722908571428572    0.8041907142857141    0.5209074450743326 N3-
   0.8151480000000001    0.0899050000000000    0.5209074450743326 N3-
   0.9580051428571430    0.3756192857142857    0.5209074450743326 N3-
   0.1008622857142857    0.6613335714285714    0.5209074450743326 N3-
   0.2437194285714286    0.9470478571428571    0.5209074450743326 N3-
   0.2194728571428571    0.3985547142857144    0.5209074450743326 N3-
   0.3623300000000000    0.6842689999999999    0.5209074450743326 N3-
   0.5051871428571429    0.9699832857142855    0.5209074450743326 N3-
   0.6480442857142857    0.2556975714285715    0.5209074450743326 N3-
   0.7909014285714285    0.5414118571428571    0.5209074450743326 N3-
   0.9337585714285714    0.8271261428571428    0.5209074450743326 N3-
   0.0766157142857142    0.1128404285714287    0.5209074450743326 N3-
   0.4705662857142858    0.4815235714285714    0.6873393723370795 N3-
   0.6134234285714286    0.7672378571428571    0.6873393723370795 N3-
   0.7562805714285716    0.0529521428571427    0.6873393723370795 N3-
   0.8991377142857143    0.3386664285714286    0.6873393723370795 N3-
   0.0419948571428571    0.6243807142857143    0.6873393723370795 N3-
   0.1848520000000000    0.9100950000000000    0.6873393723370795 N3-
   0.3277091428571430    0.1958092857142859    0.6873393723370795 N3-
   0.6376700000000001    0.3157310000000000    0.6873393723370795 N3-
   0.7805271428571431    0.6014452857142856    0.6873393723370795 N3-
   0.9233842857142860    0.8871595714285712    0.6873393723370795 N3-
   0.0662414285714286    0.1728738571428572    0.6873393723370795 N3-
   0.2090985714285714    0.4585881428571428    0.6873393723370795 N3-
   0.3519557142857143    0.7443024285714285    0.6873393723370795 N3-
   0.4948128571428573    0.0300167142857144    0.6873393723370795 N3-
   1.0668977081676512    0.3090598428039278    0.2767175584255093 O2-
   0.8002310415009846    0.3757265094705945    0.2767175584255093 O2-
   0.7335643748343181    0.6423931761372611    0.2767175584255093 O2-
   0.6668977081676515   -0.0909401571960722    0.2767175584255093 O2-
   0.4002310415009847   -0.0242734905294055    0.2767175584255093 O2-
   0.3335643748343179    0.2423931761372612    0.2767175584255093 O2-
   0.2668977081676513    0.5090598428039278    0.2767175584255093 O2-
   0.2002310415009844    0.7757265094705944    0.2767175584255093 O2-
   0.1335643748343179    0.0423931761372611    0.2767175584255093 O2-
   1.0002310415009845    0.5757265094705944    0.2767175584255093 O2-
   0.9335643748343178    0.8423931761372609    0.2767175584255093 O2-
   0.8668977081676511    0.1090598428039279    0.2767175584255093 O2-
   0.6002310415009847    0.1757265094705945    0.2767175584255094 O2-
   0.5335643748343181    0.4423931761372611    0.2767175584255094 O2-
   0.4668977081676516    0.7090598428039278    0.2767175584255094 O2-
   0.6859058974835313    0.7255885054095063    0.2839347360968911 O2-
   0.4859058974835310    0.5255885054095064    0.2839347360968911 O2-
   0.1525725641501975    0.8589218387428398    0.2839347360968911 O2-
   1.0859058974835307    0.1255885054095065    0.2839347360968911 O2-
   0.9525725641501975    0.6589218387428397    0.2839347360968911 O2-
   0.8859058974835305   -0.0744114945904934    0.2839347360968911 O2-
   0.7525725641501976    0.4589218387428398    0.2839347360968912 O2-
   0.6192392308168644   -0.0077448279238268    0.2839347360968912 O2-
   0.5525725641501976    0.2589218387428398    0.2839347360968912 O2-
   0.3525725641501976    0.0589218387428398    0.2839347360968912 O2-
   0.2859058974835308    0.3255885054095065    0.2839347360968912 O2-
   0.2192392308168643    0.5922551720761731    0.2839347360968912 O2-
   1.0192392308168641    0.3922551720761732    0.2839347360968912 O2-
   0.8192392308168640    0.1922551720761733    0.2839347360968912 O2-
   0.4192392308168645    0.7922551720761731    0.2839347360968912 O2-
   0.8910111603459105    0.4434569254278348    0.2996704750397899 O2-
   0.8243444936792438    0.7101235920945016    0.2996704750397899 O2-
   0.9576778270125771    0.1767902587611681    0.2996704750397899 O2-
   0.7576778270125770   -0.0232097412388318    0.2996704750397899 O2-
   0.6910111603459106    0.2434569254278348    0.2996704750397899 O2-
   0.6243444936792439    0.5101235920945014    0.2996704750397899 O2-
   0.5576778270125773    0.7767902587611681    0.2996704750397899 O2-
   0.4910111603459104    0.0434569254278349    0.2996704750397899 O2-
   0.4243444936792437    0.3101235920945015    0.2996704750397899 O2-
   0.3576778270125770    0.5767902587611681    0.2996704750397899 O2-
   0.2910111603459105    0.8434569254278347    0.2996704750397899 O2-
   0.2243444936792436    0.1101235920945015    0.2996704750397899 O2-
   1.1576778270125769    0.3767902587611682    0.2996704750397899 O2-
   1.0910111603459101    0.6434569254278347    0.2996704750397899 O2-
   1.0243444936792436   -0.0898764079054984    0.2996704750397899 O2-
   1.1766860163284567    0.6933189213667468    0.3068876527111717 O2-
   1.1100193496617898   -0.0400144119665863    0.3068876527111717 O2-
   1.0433526829951234    0.2266522547000801    0.3068876527111717 O2-
   0.8433526829951233    0.0266522547000802    0.3068876527111717 O2-
   0.7766860163284567    0.2933189213667468    0.3068876527111717 O2-
   0.6433526829951235    0.8266522547000802    0.3068876527111717 O2-
   0.5766860163284565    0.0933189213667469    0.3068876527111717 O2-
   0.5100193496617900    0.3599855880334135    0.3068876527111717 O2-
   0.4433526829951233    0.6266522547000801    0.3068876527111717 O2-
   0.3766860163284566   -0.1066810786332530    0.3068876527111717 O2-
   0.3100193496617899    0.1599855880334136    0.3068876527111717 O2-
   0.2433526829951233    0.4266522547000802    0.3068876527111717 O2-
   0.9766860163284568    0.4933189213667469    0.3068876527111718 O2-
   0.9100193496617902    0.7599855880334135    0.3068876527111718 O2-
   0.7100193496617903    0.5599855880334135    0.3068876527111718 O2-
   0.2484579464532458   -0.0554793231964916    0.3226233934903039 O2-
   1.1817912797865791    0.2111873434701751    0.3226233934903039 O2-
   1.1151246131199124    0.4778540101368418    0.3226233934903039 O2-
   0.9817912797865790    0.0111873434701751    0.3226233934903039 O2-
   0.9151246131199124    0.2778540101368417    0.3226233934903040 O2-
   0.8484579464532460    0.5445206768035082    0.3226233934903040 O2-
   0.7817912797865793   -0.1888126565298249    0.3226233934903040 O2-
   0.7151246131199126    0.0778540101368418    0.3226233934903040 O2-
   0.6484579464532458    0.3445206768035083    0.3226233934903040 O2-
   0.5817912797865794    0.6111873434701750    0.3226233934903040 O2-
   0.5151246131199126   -0.1221459898631583    0.3226233934903040 O2-
   0.4484579464532457    0.1445206768035084    0.3226233934903040 O2-
   0.3817912797865791    0.4111873434701750    0.3226233934903040 O2-
   0.3151246131199125    0.6778540101368415    0.3226233934903040 O2-
   1.0484579464532455    0.7445206768035082    0.3226233934903040 O2-
   1.2007994691024584    0.0277160060757538    0.3298405711616857 O2-
   0.8007994691024590    0.6277160060757535    0.3298405711616858 O2-
   0.7341328024357922   -0.1056173272575795    0.3298405711616858 O2-
   0.6674661357691255    0.1610493394090871    0.3298405711616858 O2-
   0.6007994691024588    0.4277160060757537    0.3298405711616858 O2-
   0.4674661357691257   -0.0389506605909129    0.3298405711616858 O2-
   0.4007994691024586    0.2277160060757538    0.3298405711616858 O2-
   0.3341328024357921    0.4943826727424204    0.3298405711616858 O2-
   0.2674661357691254    0.7610493394090869    0.3298405711616858 O2-
   1.0007994691024584   -0.1722839939242462    0.3298405711616858 O2-
   0.9341328024357919    0.0943826727424205    0.3298405711616858 O2-
   0.8674661357691255    0.3610493394090870    0.3298405711616859 O2-
   0.5341328024357923    0.6943826727424204    0.3298405711616859 O2-
   1.1341328024357917    0.2943826727424205    0.3298405711616859 O2-
   1.0674661357691255    0.5610493394090870    0.3298405711616859 O2-
   1.0059047319648384    0.3455844260940820    0.3455763101045846 O2-
   0.9392380652981717    0.6122510927607487    0.3455763101045846 O2-
   0.8059047319648384    0.1455844260940820    0.3455763101045846 O2-
   0.6725713986315051    0.6789177594274154    0.3455763101045846 O2-
   0.4059047319648382    0.7455844260940820    0.3455763101045846 O2-
   1.1392380652981713   -0.1877489072392512    0.3455763101045846 O2-
   1.0725713986315049    0.0789177594274154    0.3455763101045846 O2-
   0.8725713986315049   -0.1210822405725846    0.3455763101045846 O2-
   0.7392380652981717    0.4122510927607487    0.3455763101045846 O2-
   0.6059047319648381   -0.0544155739059179    0.3455763101045846 O2-
   0.5392380652981715    0.2122510927607487    0.3455763101045846 O2-
   0.4725713986315048    0.4789177594274153    0.3455763101045846 O2-
   0.3392380652981715    0.0122510927607488    0.3455763101045846 O2-
   1.2725713986315048    0.2789177594274154    0.3455763101045846 O2-
   1.2059047319648379    0.5455844260940819    0.3455763101045846 O2-
   0.5582462546140511    0.5287797553663274    0.3527934877759663 O2-
   0.4915795879473843   -0.2045535779670057    0.3527934877759663 O2-
   1.2249129212807179   -0.1378869113003391    0.3527934877759663 O2-
   0.9582462546140511   -0.0712202446336725    0.3527934877759664 O2-
   0.8915795879473845    0.1954464220329941    0.3527934877759664 O2-
   0.7582462546140513    0.7287797553663274    0.3527934877759664 O2-
   0.6915795879473843   -0.0045535779670059    0.3527934877759664 O2-
   0.6249129212807177    0.2621130886996608    0.3527934877759664 O2-
   0.4249129212807177    0.0621130886996608    0.3527934877759664 O2-
   0.3582462546140511    0.3287797553663275    0.3527934877759664 O2-
   1.1582462546140513    0.1287797553663273    0.3527934877759664 O2-
   1.0915795879473846    0.3954464220329941    0.3527934877759664 O2-
   1.0249129212807180    0.6621130886996607    0.3527934877759664 O2-
   0.8249129212807180    0.4621130886996608    0.3527934877759664 O2-
   1.2915795879473846    0.5954464220329939    0.3527934877759664 O2-
