H168 Pb28 C28 I84 N28
1.0
  20.0565134149337041    0.0000000000000000    0.0000000000000012
   5.3227719102389406   28.7736212007485364    0.0000000000000018
   0.0000000000000000    0.0000000000000000   38.9458026870475891
H Pb C I N
168 28 28 84 28
direct
   0.4850805714285715    0.4649361428571430    0.4978602846508419 H+
   0.6279377142857145    0.7506504285714284    0.4978602846508419 H+
   0.7707948571428573    0.0363647142857140    0.4978602846508419 H+
   0.9136520000000000    0.3220789999999999    0.4978602846508419 H+
   0.0565091428571430    0.6077932857142857    0.4978602846508419 H+
   0.1993662857142857    0.8935075714285714    0.4978602846508419 H+
   0.2336837142857142    0.4621424285714286    0.4978602846508419 H+
   0.3765408571428572    0.7478567142857142    0.4978602846508419 H+
   0.5193980000000000    0.0335709999999998    0.4978602846508419 H+
   0.6622551428571428    0.3192852857142858    0.4978602846508419 H+
   0.8051122857142856    0.6049995714285714    0.4978602846508419 H+
   0.9479694285714286    0.8907138571428570    0.4978602846508419 H+
   0.3422234285714286    0.1792218571428573    0.4978602846508420 H+
   0.0908265714285713    0.1764281428571429    0.4978602846508420 H+
   0.3800259999999999    0.2543160000000000    0.4993964513394771 H+
   0.5228831428571430    0.5400302857142857    0.4993964513394771 H+
   0.6657402857142859    0.8257445714285713    0.4993964513394771 H+
   0.8085974285714286    0.1114588571428572    0.4993964513394771 H+
   0.9514545714285715    0.3971731428571429    0.4993964513394771 H+
   0.0943117142857143    0.6828874285714286    0.4993964513394771 H+
   0.2371688571428572    0.9686017142857143    0.4993964513394771 H+
   0.1963191428571428    0.3869022857142858    0.4993964513394771 H+
   0.3391762857142857    0.6726165714285715    0.4993964513394771 H+
   0.4820334285714286    0.9583308571428569    0.4993964513394771 H+
   0.6248905714285713    0.2440451428571429    0.4993964513394771 H+
   0.7677477142857143    0.5297594285714284    0.4993964513394771 H+
   0.9106048571428573    0.8154737142857142    0.4993964513394771 H+
   0.0534620000000000    0.1011880000000001    0.4993964513394771 H+
   0.7100170000000001    0.0798819999999999    0.5209074450743325 H+
   0.1385884285714287    0.9370248571428571    0.5209074450743325 H+
   0.4377792857142856    0.2136175714285715    0.5209074450743326 H+
   0.5806364285714286    0.4993318571428571    0.5209074450743326 H+
   0.7234935714285715    0.7850461428571427    0.5209074450743326 H+
   0.8663507142857144    0.0707604285714286    0.5209074450743326 H+
   0.0092078571428571    0.3564747142857144    0.5209074450743326 H+
   0.1520650000000000    0.6421889999999999    0.5209074450743326 H+
   0.2949221428571428    0.9279032857142857    0.5209074450743326 H+
   0.2724558571428571    0.3829707142857143    0.5209074450743326 H+
   0.4153130000000000    0.6686850000000000    0.5209074450743326 H+
   0.5581701428571431    0.9543992857142856    0.5209074450743326 H+
   0.7010272857142857    0.2401135714285715    0.5209074450743326 H+
   0.8438844285714288    0.5258278571428571    0.5209074450743326 H+
   0.9867415714285717    0.8115421428571428    0.5209074450743326 H+
   0.1295987142857143    0.0972564285714286    0.5209074450743326 H+
   0.4243027142857143    0.5084534285714285    0.5209074450743326 H+
   0.5671598571428573    0.7941677142857142    0.5209074450743326 H+
   0.8528741428571429    0.3655962857142858    0.5209074450743326 H+
   0.9957312857142858    0.6513105714285714    0.5209074450743326 H+
   0.2814455714285715    0.2227391428571431    0.5209074450743326 H+
   0.5815418571428572    0.3229317142857144    0.5209074450743326 H+
   0.7243990000000000    0.6086459999999999    0.5209074450743326 H+
   0.8672561428571429    0.8943602857142855    0.5209074450743326 H+
   0.0101132857142857    0.1800745714285715    0.5209074450743326 H+
   0.1529704285714286    0.4657888571428571    0.5209074450743326 H+
   0.2958275714285714    0.7515031428571428    0.5209074450743326 H+
   0.4386847142857143    0.0372174285714287    0.5209074450743326 H+
   0.0943117142857143    0.6828874285714286    0.5424184388091881 H+
   0.3800259999999999    0.2543160000000000    0.5424184388091882 H+
   0.5228831428571430    0.5400302857142857    0.5424184388091882 H+
   0.6657402857142859    0.8257445714285713    0.5424184388091882 H+
   0.8085974285714286    0.1114588571428572    0.5424184388091882 H+
   0.9514545714285715    0.3971731428571429    0.5424184388091882 H+
   0.2371688571428572    0.9686017142857143    0.5424184388091882 H+
   0.1963191428571428    0.3869022857142858    0.5424184388091882 H+
   0.3391762857142857    0.6726165714285715    0.5424184388091882 H+
   0.4820334285714286    0.9583308571428569    0.5424184388091882 H+
   0.6248905714285713    0.2440451428571429    0.5424184388091882 H+
   0.7677477142857143    0.5297594285714284    0.5424184388091882 H+
   0.9106048571428573    0.8154737142857142    0.5424184388091882 H+
   0.0534620000000000    0.1011880000000001    0.5424184388091882 H+
   0.4850805714285715    0.4649361428571430    0.5439546054978233 H+
   0.6279377142857145    0.7506504285714284    0.5439546054978233 H+
   0.7707948571428573    0.0363647142857140    0.5439546054978233 H+
   0.9136520000000000    0.3220789999999999    0.5439546054978233 H+
   0.0565091428571430    0.6077932857142857    0.5439546054978233 H+
   0.1993662857142857    0.8935075714285714    0.5439546054978233 H+
   0.3422234285714286    0.1792218571428573    0.5439546054978233 H+
   0.2336837142857142    0.4621424285714286    0.5439546054978233 H+
   0.3765408571428572    0.7478567142857142    0.5439546054978233 H+
   0.5193980000000000    0.0335709999999998    0.5439546054978233 H+
   0.6622551428571428    0.3192852857142858    0.5439546054978233 H+
   0.8051122857142856    0.6049995714285714    0.5439546054978233 H+
   0.9479694285714286    0.8907138571428570    0.5439546054978233 H+
   0.0908265714285713    0.1764281428571428    0.5439546054978233 H+
   0.3720622857142857    0.2493495714285714    0.6642922119135888 H+
   0.5149194285714287    0.5350638571428572    0.6642922119135889 H+
   0.6577765714285717    0.8207781428571428    0.6642922119135889 H+
   0.8006337142857144    0.1064924285714286    0.6642922119135889 H+
   0.9434908571428571    0.3922067142857143    0.6642922119135889 H+
   0.0863480000000001    0.6779210000000000    0.6642922119135889 H+
   0.2292051428571429    0.9636352857142856    0.6642922119135889 H+
   0.6234591428571429    0.2521432857142858    0.6642922119135889 H+
   0.7663162857142858    0.5378575714285714    0.6642922119135889 H+
   0.9091734285714288    0.8235718571428570    0.6642922119135889 H+
   0.0520305714285714    0.1092861428571429    0.6642922119135889 H+
   0.1948877142857143    0.3950004285714286    0.6642922119135889 H+
   0.3377448571428572    0.6807147142857143    0.6642922119135889 H+
   0.4806020000000000    0.9664290000000000    0.6642922119135889 H+
   0.4771168571428572    0.4599697142857142    0.6658283786022240 H+
   0.7628311428571430    0.0313982857142854    0.6658283786022240 H+
   0.9056882857142858    0.3171125714285714    0.6658283786022240 H+
   0.1914025714285715    0.8885411428571428    0.6658283786022240 H+
   0.3342597142857144    0.1742554285714286    0.6658283786022240 H+
   0.6199740000000001    0.7456839999999999    0.6658283786022241 H+
   0.0485454285714286    0.6028268571428571    0.6658283786022241 H+
   0.6608237142857144    0.3273834285714285    0.6658283786022241 H+
   0.8036808571428572    0.6130977142857142    0.6658283786022241 H+
   0.9465380000000002    0.8988119999999998    0.6658283786022241 H+
   0.0893951428571429    0.1845262857142858    0.6658283786022241 H+
   0.2322522857142857    0.4702405714285714    0.6658283786022241 H+
   0.3751094285714286    0.7559548571428572    0.6658283786022241 H+
   0.5179665714285716    0.0416691428571429    0.6658283786022241 H+
   0.4193635714285715    0.5006681428571429    0.6873393723370795 H+
   0.5622207142857143    0.7863824285714285    0.6873393723370795 H+
   0.7050778571428572    0.0720967142857141    0.6873393723370795 H+
   0.8479350000000000    0.3578110000000000    0.6873393723370795 H+
   0.9907921428571428    0.6435252857142858    0.6873393723370795 H+
   0.1336492857142856    0.9292395714285714    0.6873393723370795 H+
   0.2765064285714285    0.2149538571428571    0.6873393723370795 H+
   0.5846870000000002    0.3313150000000000    0.6873393723370795 H+
   0.7275441428571430    0.6170292857142856    0.6873393723370795 H+
   0.8704012857142860    0.9027435714285712    0.6873393723370795 H+
   0.0132584285714286    0.1884578571428572    0.6873393723370795 H+
   0.1561155714285714    0.4741721428571428    0.6873393723370795 H+
   0.2989727142857144    0.7598864285714285    0.6873393723370795 H+
   0.4418298571428573    0.0456007142857145    0.6873393723370795 H+
   0.4328401428571429    0.2058322857142857    0.6873393723370795 H+
   0.5756972857142858    0.4915465714285714    0.6873393723370795 H+
   0.7185544285714288    0.7772608571428570    0.6873393723370795 H+
   0.8614115714285715    0.0629751428571429    0.6873393723370795 H+
   0.0042687142857143    0.3486894285714285    0.6873393723370795 H+
   0.1471258571428571    0.6344037142857143    0.6873393723370795 H+
   0.2899830000000001    0.9201180000000000    0.6873393723370795 H+
   0.2756010000000000    0.3913540000000000    0.6873393723370795 H+
   0.4184581428571429    0.6770682857142856    0.6873393723370795 H+
   0.5613152857142858    0.9627825714285712    0.6873393723370795 H+
   0.7041724285714285    0.2484968571428571    0.6873393723370795 H+
   0.8470295714285714    0.5342111428571429    0.6873393723370795 H+
   0.9898867142857143    0.8199254285714285    0.6873393723370795 H+
   0.1327438571428572    0.1056397142857144    0.6873393723370795 H+
   0.8036808571428572    0.6130977142857142    0.7088503660719350 H+
   0.2322522857142857    0.4702405714285714    0.7088503660719350 H+
   0.4771168571428572    0.4599697142857142    0.7088503660719352 H+
   0.6199740000000001    0.7456839999999999    0.7088503660719352 H+
   0.7628311428571430    0.0313982857142854    0.7088503660719352 H+
   0.9056882857142858    0.3171125714285714    0.7088503660719352 H+
   0.0485454285714286    0.6028268571428571    0.7088503660719352 H+
   0.1914025714285715    0.8885411428571428    0.7088503660719352 H+
   0.3342597142857144    0.1742554285714286    0.7088503660719352 H+
   0.6608237142857144    0.3273834285714285    0.7088503660719352 H+
   0.9465380000000002    0.8988119999999998    0.7088503660719352 H+
   0.0893951428571429    0.1845262857142858    0.7088503660719352 H+
   0.3751094285714286    0.7559548571428572    0.7088503660719352 H+
   0.5179665714285716    0.0416691428571429    0.7088503660719352 H+
   0.3720622857142857    0.2493495714285714    0.7103865327605703 H+
   0.5149194285714287    0.5350638571428572    0.7103865327605703 H+
   0.6577765714285717    0.8207781428571428    0.7103865327605703 H+
   0.8006337142857144    0.1064924285714286    0.7103865327605703 H+
   0.9434908571428571    0.3922067142857142    0.7103865327605703 H+
   0.0863480000000001    0.6779210000000000    0.7103865327605703 H+
   0.2292051428571429    0.9636352857142856    0.7103865327605703 H+
   0.6234591428571429    0.2521432857142857    0.7103865327605703 H+
   0.7663162857142858    0.5378575714285714    0.7103865327605703 H+
   0.9091734285714288    0.8235718571428570    0.7103865327605703 H+
   0.0520305714285714    0.1092861428571429    0.7103865327605703 H+
   0.1948877142857143    0.3950004285714286    0.7103865327605703 H+
   0.3377448571428572    0.6807147142857143    0.7103865327605703 H+
   0.4806020000000000    0.9664290000000000    0.7103865327605703 H+
   0.4285714285714285    0.3571428571428572    0.4376914814429591 Pb2+
   0.8571428571428571    0.2142857142857143    0.4376914814429591 Pb2+
   0.5714285714285716    0.6428571428571429    0.4376914814429591 Pb2+
   0.7142857142857144    0.9285714285714285    0.4376914814429591 Pb2+
  -0.0000000000000000    0.5000000000000000    0.4376914814429591 Pb2+
   0.1428571428571429    0.7857142857142856    0.4376914814429591 Pb2+
   0.2857142857142857    0.0714285714285715    0.4376914814429591 Pb2+
   0.5714285714285714    0.1428571428571429    0.4376914814429591 Pb2+
  -0.0000000000000000    0.0000000000000001    0.4376914814429591 Pb2+
   0.7142857142857144    0.4285714285714285    0.4376914814429592 Pb2+
   0.8571428571428572    0.7142857142857140    0.4376914814429592 Pb2+
   0.1428571428571429    0.2857142857142858    0.4376914814429592 Pb2+
   0.2857142857142858    0.5714285714285714    0.4376914814429592 Pb2+
   0.4285714285714286    0.8571428571428571    0.4376914814429592 Pb2+
   0.4285714285714285    0.3571428571428572    0.6041234087057061 Pb2+
   0.5714285714285716    0.6428571428571429    0.6041234087057061 Pb2+
   0.7142857142857144    0.9285714285714285    0.6041234087057061 Pb2+
   0.8571428571428571    0.2142857142857143    0.6041234087057061 Pb2+
  -0.0000000000000000    0.5000000000000000    0.6041234087057061 Pb2+
   0.1428571428571429    0.7857142857142856    0.6041234087057061 Pb2+
   0.2857142857142858    0.0714285714285714    0.6041234087057061 Pb2+
   0.5714285714285714    0.1428571428571429    0.6041234087057061 Pb2+
   0.7142857142857144    0.4285714285714285    0.6041234087057061 Pb2+
   0.8571428571428572    0.7142857142857140    0.6041234087057061 Pb2+
  -0.0000000000000000    0.0000000000000000    0.6041234087057061 Pb2+
   0.1428571428571429    0.2857142857142858    0.6041234087057061 Pb2+
   0.2857142857142858    0.5714285714285714    0.6041234087057061 Pb2+
   0.4285714285714287    0.8571428571428571    0.6041234087057061 Pb2+
   0.7629675714285716    0.0582901428571428    0.5209074450743325 C2-
   0.1915390000000001    0.9154329999999999    0.5209074450743325 C2-
   0.4772532857142857    0.4868615714285714    0.5209074450743326 C2-
   0.6201104285714287    0.7725758571428571    0.5209074450743326 C2-
   0.9058247142857145    0.3440044285714286    0.5209074450743326 C2-
   0.0486818571428571    0.6297187142857141    0.5209074450743326 C2-
   0.3343961428571428    0.2011472857142856    0.5209074450743326 C2-
   0.6378710000000001    0.3080970000000002    0.5209074450743326 C2-
   0.7807281428571430    0.5938112857142858    0.5209074450743326 C2-
   0.9235852857142859    0.8795255714285711    0.5209074450743326 C2-
   0.0664424285714286    0.1652398571428572    0.5209074450743326 C2-
   0.2092995714285715    0.4509541428571429    0.5209074450743326 C2-
   0.3521567142857143    0.7366684285714286    0.5209074450743326 C2-
   0.4950138571428572    0.0223827142857143    0.5209074450743326 C2-
   0.3798895714285714    0.2274241428571429    0.6873393723370795 C2-
   0.5227467142857144    0.5131384285714286    0.6873393723370795 C2-
   0.6656038571428572    0.7988527142857141    0.6873393723370795 C2-
   0.8084610000000000    0.0845670000000000    0.6873393723370795 C2-
   0.9513181428571430    0.3702812857142856    0.6873393723370795 C2-
   0.0941752857142857    0.6559955714285713    0.6873393723370795 C2-
   0.2370324285714285    0.9417098571428572    0.6873393723370795 C2-
   0.2192718571428571    0.4061887142857142    0.6873393723370795 C2-
   0.3621290000000001    0.6919029999999999    0.6873393723370795 C2-
   0.5049861428571429    0.9776172857142855    0.6873393723370795 C2-
   0.6478432857142857    0.2633315714285714    0.6873393723370795 C2-
   0.7907004285714285    0.5490458571428571    0.6873393723370795 C2-
   0.9335575714285715    0.8347601428571428    0.6873393723370795 C2-
   0.0764147142857143    0.1204744285714286    0.6873393723370795 C2-
   0.5364798571428572    0.2568937142857143    0.4450634172291352 I-
   0.6793370000000001    0.5426080000000000    0.4450634172291352 I-
   0.8221941428571431    0.8283222857142856    0.4450634172291352 I-
   0.9650512857142858    0.1140365714285715    0.4450634172291352 I-
   0.1079084285714285    0.3997508571428572    0.4450634172291352 I-
   0.2507655714285714    0.6854651428571429    0.4450634172291352 I-
   0.3936227142857143    0.9711794285714286    0.4450634172291352 I-
   0.3058624285714285    0.2956588571428572    0.4450634172291352 I-
   0.4487195714285715    0.5813731428571428    0.4450634172291352 I-
   0.5915767142857143    0.8670874285714284    0.4450634172291352 I-
   0.7344338571428570    0.1528017142857143    0.4450634172291352 I-
   0.8772910000000000    0.4385160000000001    0.4450634172291352 I-
   0.0201481428571428    0.7242302857142857    0.4450634172291352 I-
   0.1630052857142857    0.0099445714285716    0.4450634172291352 I-
   0.4141995714285713    0.3661321428571429    0.5209074450743326 I-
   0.5570567142857142    0.6518464285714284    0.5209074450743326 I-
   0.6999138571428573    0.9375607142857142    0.5209074450743326 I-
   0.8427710000000000    0.2232750000000001    0.5209074450743326 I-
   0.9856281428571428    0.5089892857142857    0.5209074450743326 I-
   0.1284852857142856    0.7947035714285714    0.5209074450743326 I-
   0.2713424285714285    0.0804178571428572    0.5209074450743326 I-
   0.6963150000000001    0.4303630000000000    0.5209074450743326 I-
   0.8391721428571429    0.7160772857142856    0.5209074450743326 I-
   0.9820292857142860    0.0017915714285712    0.5209074450743326 I-
   0.1248864285714286    0.2875058571428571    0.5209074450743326 I-
   0.2677435714285714    0.5732201428571428    0.5209074450743326 I-
   0.4106007142857143    0.8589344285714285    0.5209074450743326 I-
   0.5534578571428572    0.1446487142857143    0.5209074450743326 I-
   0.3058624285714285    0.2956588571428572    0.5967514729195299 I-
   0.5915767142857143    0.8670874285714284    0.5967514729195299 I-
   0.7344338571428570    0.1528017142857143    0.5967514729195299 I-
   0.8772910000000000    0.4385160000000001    0.5967514729195299 I-
   0.0201481428571428    0.7242302857142857    0.5967514729195299 I-
   0.1630052857142857    0.0099445714285716    0.5967514729195299 I-
   0.5364798571428572    0.2568937142857143    0.5967514729195300 I-
   0.6793370000000001    0.5426080000000000    0.5967514729195300 I-
   0.8221941428571431    0.8283222857142856    0.5967514729195300 I-
   0.9650512857142858    0.1140365714285715    0.5967514729195300 I-
   0.1079084285714286    0.3997508571428572    0.5967514729195300 I-
   0.2507655714285715    0.6854651428571429    0.5967514729195300 I-
   0.3936227142857143    0.9711794285714286    0.5967514729195300 I-
   0.4487195714285716    0.5813731428571428    0.5967514729195300 I-
   0.5512804285714286    0.4186268571428572    0.6114953444918821 I-
   0.8369947142857145    0.9900554285714285    0.6114953444918821 I-
   0.9798518571428572    0.2757697142857145    0.6114953444918821 I-
   0.2655661428571429    0.8471982857142858    0.6114953444918821 I-
   0.4084232857142858    0.1329125714285715    0.6114953444918821 I-
   0.3206630000000000    0.4573920000000000    0.6114953444918823 I-
   0.4635201428571429    0.7431062857142856    0.6114953444918823 I-
   0.6063772857142858    0.0288205714285715    0.6114953444918823 I-
   0.7492344285714285    0.3145348571428572    0.6114953444918823 I-
   0.8920915714285715    0.6002491428571428    0.6114953444918823 I-
   0.0349487142857143    0.8859634285714285    0.6114953444918823 I-
   0.1778058571428572    0.1716777142857142    0.6114953444918823 I-
   0.6941375714285717    0.7043411428571429    0.6114953444918823 I-
   0.1227090000000000    0.5614840000000000    0.6114953444918823 I-
   0.4429432857142858    0.3481535714285715    0.6873393723370795 I-
   0.5858004285714287    0.6338678571428571    0.6873393723370795 I-
   0.7286575714285717    0.9195821428571427    0.6873393723370795 I-
   0.8715147142857144    0.2052964285714286    0.6873393723370795 I-
   0.0143718571428571    0.4910107142857143    0.6873393723370795 I-
   0.1572290000000000    0.7767250000000000    0.6873393723370795 I-
   0.3000861428571429    0.0624392857142857    0.6873393723370795 I-
   0.1608278571428571    0.2839227142857143    0.6873393723370795 I-
   0.3036850000000000    0.5696370000000001    0.6873393723370795 I-
   0.4465421428571430    0.8553512857142855    0.6873393723370795 I-
   0.5893992857142856    0.1410655714285715    0.6873393723370795 I-
   0.7322564285714286    0.4267798571428571    0.6873393723370795 I-
   0.8751135714285716    0.7124941428571429    0.6873393723370795 I-
   0.0179707142857143    0.9982084285714286    0.6873393723370795 I-
   0.3206630000000000    0.4573920000000000    0.7631834001822769 I-
   0.4635201428571429    0.7431062857142856    0.7631834001822769 I-
   0.7492344285714285    0.3145348571428571    0.7631834001822769 I-
   0.8920915714285715    0.6002491428571428    0.7631834001822769 I-
   0.1778058571428572    0.1716777142857142    0.7631834001822769 I-
   0.6063772857142858    0.0288205714285715    0.7631834001822770 I-
   0.0349487142857143    0.8859634285714285    0.7631834001822770 I-
   0.5512804285714286    0.4186268571428571    0.7631834001822770 I-
   0.6941375714285717    0.7043411428571429    0.7631834001822770 I-
   0.8369947142857145    0.9900554285714285    0.7631834001822770 I-
   0.9798518571428572    0.2757697142857144    0.7631834001822770 I-
   0.1227090000000000    0.5614840000000000    0.7631834001822770 I-
   0.2655661428571429    0.8471982857142858    0.7631834001822770 I-
   0.4084232857142858    0.1329125714285715    0.7631834001822770 I-
   0.3865765714285714    0.2327621428571429    0.5209074450743326 N3-
   0.5294337142857144    0.5184764285714285    0.5209074450743326 N3-
   0.6722908571428572    0.8041907142857141    0.5209074450743326 N3-
   0.8151480000000001    0.0899050000000000    0.5209074450743326 N3-
   0.9580051428571430    0.3756192857142857    0.5209074450743326 N3-
   0.1008622857142857    0.6613335714285714    0.5209074450743326 N3-
   0.2437194285714286    0.9470478571428571    0.5209074450743326 N3-
   0.2194728571428571    0.3985547142857144    0.5209074450743326 N3-
   0.3623300000000000    0.6842689999999999    0.5209074450743326 N3-
   0.5051871428571429    0.9699832857142855    0.5209074450743326 N3-
   0.6480442857142857    0.2556975714285715    0.5209074450743326 N3-
   0.7909014285714285    0.5414118571428571    0.5209074450743326 N3-
   0.9337585714285714    0.8271261428571428    0.5209074450743326 N3-
   0.0766157142857142    0.1128404285714287    0.5209074450743326 N3-
   0.4705662857142858    0.4815235714285714    0.6873393723370795 N3-
   0.6134234285714286    0.7672378571428571    0.6873393723370795 N3-
   0.7562805714285716    0.0529521428571427    0.6873393723370795 N3-
   0.8991377142857143    0.3386664285714286    0.6873393723370795 N3-
   0.0419948571428571    0.6243807142857143    0.6873393723370795 N3-
   0.1848520000000000    0.9100950000000000    0.6873393723370795 N3-
   0.3277091428571430    0.1958092857142859    0.6873393723370795 N3-
   0.6376700000000001    0.3157310000000000    0.6873393723370795 N3-
   0.7805271428571431    0.6014452857142856    0.6873393723370795 N3-
   0.9233842857142860    0.8871595714285712    0.6873393723370795 N3-
   0.0662414285714286    0.1728738571428572    0.6873393723370795 N3-
   0.2090985714285714    0.4585881428571428    0.6873393723370795 N3-
   0.3519557142857143    0.7443024285714285    0.6873393723370795 N3-
   0.4948128571428573    0.0300167142857144    0.6873393723370795 N3-
