Ti60 O120
1.0
  20.0565134149337041    0.0000000000000000    0.0000000000000012
   5.3227719102389406   28.7736212007485364    0.0000000000000018
   0.0000000000000000    0.0000000000000000   38.9458026870475891
Ti O
60 120
direct
   0.7217918620991184    0.8511893815640623    0.2918026051092821 Ti4+
   0.4551251954324517   -0.0821439517692710    0.2918026051092821 Ti4+
   0.1884585287657848   -0.0154772851026044    0.2918026051092821 Ti4+
   0.8551251954324517    0.3178560482307289    0.2918026051092822 Ti4+
   0.7884585287657851    0.5845227148973956    0.2918026051092822 Ti4+
   0.6551251954324516    0.1178560482307291    0.2918026051092822 Ti4+
   0.5884585287657851    0.3845227148973956    0.2918026051092822 Ti4+
   0.3884585287657848    0.1845227148973957    0.2918026051092822 Ti4+
   0.3217918620991183    0.4511893815640623    0.2918026051092822 Ti4+
   0.2551251954324515    0.7178560482307289    0.2918026051092822 Ti4+
   1.0551251954324514    0.5178560482307289    0.2918026051092822 Ti4+
   0.9884585287657847    0.7845227148973956    0.2918026051092822 Ti4+
   0.9217918620991180    0.0511893815640624    0.2918026051092822 Ti4+
   0.5217918620991187    0.6511893815640623    0.2918026051092822 Ti4+
   1.1217918620991181    0.2511893815640623    0.2918026051092822 Ti4+
   1.1459053145752487    0.0855864652305194    0.3147555226416794 Ti4+
   1.0792386479085823    0.3522531318971860    0.3147555226416794 Ti4+
   1.0125719812419156    0.6189197985638527    0.3147555226416794 Ti4+
   0.8792386479085822    0.1522531318971861    0.3147555226416795 Ti4+
   0.8125719812419158    0.4189197985638526    0.3147555226416795 Ti4+
   0.7459053145752490    0.6855864652305192    0.3147555226416795 Ti4+
   0.6792386479085820   -0.0477468681028140    0.3147555226416795 Ti4+
   0.6125719812419155    0.2189197985638527    0.3147555226416795 Ti4+
   0.5459053145752487    0.4855864652305192    0.3147555226416795 Ti4+
   0.4792386479085821    0.7522531318971860    0.3147555226416795 Ti4+
   0.4125719812419154    0.0189197985638527    0.3147555226416795 Ti4+
   0.3459053145752487    0.2855864652305194    0.3147555226416795 Ti4+
   0.2792386479085819    0.5522531318971859    0.3147555226416795 Ti4+
   0.2125719812419153   -0.1810802014361473    0.3147555226416795 Ti4+
   0.9459053145752490   -0.1144135347694807    0.3147555226416796 Ti4+
   0.9033521003847130    0.4866502155636428    0.3377084401740768 Ti4+
   0.8366854337180462    0.7533168822303096    0.3377084401740768 Ti4+
   0.3700187670513793    0.6199835488969762    0.3377084401740768 Ti4+
   0.9700187670513795    0.2199835488969762    0.3377084401740768 Ti4+
   0.7033521003847129    0.2866502155636430    0.3377084401740768 Ti4+
   0.5700187670513795   -0.1800164511030238    0.3377084401740768 Ti4+
   0.5033521003847126    0.0866502155636430    0.3377084401740768 Ti4+
   0.4366854337180461    0.3533168822303096    0.3377084401740768 Ti4+
   0.3033521003847128   -0.1133497844363572    0.3377084401740768 Ti4+
   1.1700187670513793    0.4199835488969762    0.3377084401740768 Ti4+
   1.0366854337180458   -0.0466831177696903    0.3377084401740768 Ti4+
   0.7700187670513796    0.0199835488969763    0.3377084401740769 Ti4+
   0.6366854337180464    0.5533168822303095    0.3377084401740769 Ti4+
   1.2366854337180460    0.1533168822303096    0.3377084401740769 Ti4+
   1.1033521003847127    0.6866502155636427    0.3377084401740769 Ti4+
   1.2607988861941766   -0.0122860341032334    0.3606613577064741 Ti4+
   1.1941322195275101    0.2543806325634332    0.3606613577064741 Ti4+
   1.1274655528608435    0.5210472992300998    0.3606613577064741 Ti4+
   1.0607988861941768   -0.2122860341032334    0.3606613577064741 Ti4+
   0.9941322195275102    0.0543806325634333    0.3606613577064741 Ti4+
   0.9274655528608435    0.3210472992300999    0.3606613577064741 Ti4+
   0.6607988861941766    0.3877139658967665    0.3606613577064741 Ti4+
   0.5274655528608433   -0.0789527007699001    0.3606613577064741 Ti4+
   0.4607988861941766    0.1877139658967666    0.3606613577064741 Ti4+
   0.3274655528608432   -0.2789527007699000    0.3606613577064741 Ti4+
   0.8607988861941769    0.5877139658967665    0.3606613577064742 Ti4+
   0.7941322195275100   -0.1456193674365668    0.3606613577064742 Ti4+
   0.7274655528608434    0.1210472992301000    0.3606613577064742 Ti4+
   0.5941322195275101    0.6543806325634332    0.3606613577064742 Ti4+
   0.3941322195275099    0.4543806325634332    0.3606613577064742 Ti4+
   1.0668977081676512    0.3090598428039278    0.2767175584255093 O2-
   0.8002310415009846    0.3757265094705945    0.2767175584255093 O2-
   0.7335643748343181    0.6423931761372611    0.2767175584255093 O2-
   0.6668977081676515   -0.0909401571960722    0.2767175584255093 O2-
   0.4002310415009847   -0.0242734905294055    0.2767175584255093 O2-
   0.3335643748343179    0.2423931761372612    0.2767175584255093 O2-
   0.2668977081676513    0.5090598428039278    0.2767175584255093 O2-
   0.2002310415009844    0.7757265094705944    0.2767175584255093 O2-
   0.1335643748343179    0.0423931761372611    0.2767175584255093 O2-
   1.0002310415009845    0.5757265094705944    0.2767175584255093 O2-
   0.9335643748343178    0.8423931761372609    0.2767175584255093 O2-
   0.8668977081676511    0.1090598428039279    0.2767175584255093 O2-
   0.6002310415009847    0.1757265094705945    0.2767175584255094 O2-
   0.5335643748343181    0.4423931761372611    0.2767175584255094 O2-
   0.4668977081676516    0.7090598428039278    0.2767175584255094 O2-
   0.6859058974835313    0.7255885054095063    0.2839347360968911 O2-
   0.4859058974835310    0.5255885054095064    0.2839347360968911 O2-
   0.1525725641501975    0.8589218387428398    0.2839347360968911 O2-
   1.0859058974835307    0.1255885054095065    0.2839347360968911 O2-
   0.9525725641501975    0.6589218387428397    0.2839347360968911 O2-
   0.8859058974835305   -0.0744114945904934    0.2839347360968911 O2-
   0.7525725641501976    0.4589218387428398    0.2839347360968912 O2-
   0.6192392308168644   -0.0077448279238268    0.2839347360968912 O2-
   0.5525725641501976    0.2589218387428398    0.2839347360968912 O2-
   0.3525725641501976    0.0589218387428398    0.2839347360968912 O2-
   0.2859058974835308    0.3255885054095065    0.2839347360968912 O2-
   0.2192392308168643    0.5922551720761731    0.2839347360968912 O2-
   1.0192392308168641    0.3922551720761732    0.2839347360968912 O2-
   0.8192392308168640    0.1922551720761733    0.2839347360968912 O2-
   0.4192392308168645    0.7922551720761731    0.2839347360968912 O2-
   0.8910111603459105    0.4434569254278348    0.2996704750397899 O2-
   0.8243444936792438    0.7101235920945016    0.2996704750397899 O2-
   0.9576778270125771    0.1767902587611681    0.2996704750397899 O2-
   0.7576778270125770   -0.0232097412388318    0.2996704750397899 O2-
   0.6910111603459106    0.2434569254278348    0.2996704750397899 O2-
   0.6243444936792439    0.5101235920945014    0.2996704750397899 O2-
   0.5576778270125773    0.7767902587611681    0.2996704750397899 O2-
   0.4910111603459104    0.0434569254278349    0.2996704750397899 O2-
   0.4243444936792437    0.3101235920945015    0.2996704750397899 O2-
   0.3576778270125770    0.5767902587611681    0.2996704750397899 O2-
   0.2910111603459105    0.8434569254278347    0.2996704750397899 O2-
   0.2243444936792436    0.1101235920945015    0.2996704750397899 O2-
   1.1576778270125769    0.3767902587611682    0.2996704750397899 O2-
   1.0910111603459101    0.6434569254278347    0.2996704750397899 O2-
   1.0243444936792436   -0.0898764079054984    0.2996704750397899 O2-
   1.1766860163284567    0.6933189213667468    0.3068876527111717 O2-
   1.1100193496617898   -0.0400144119665863    0.3068876527111717 O2-
   1.0433526829951234    0.2266522547000801    0.3068876527111717 O2-
   0.8433526829951233    0.0266522547000802    0.3068876527111717 O2-
   0.7766860163284567    0.2933189213667468    0.3068876527111717 O2-
   0.6433526829951235    0.8266522547000802    0.3068876527111717 O2-
   0.5766860163284565    0.0933189213667469    0.3068876527111717 O2-
   0.5100193496617900    0.3599855880334135    0.3068876527111717 O2-
   0.4433526829951233    0.6266522547000801    0.3068876527111717 O2-
   0.3766860163284566   -0.1066810786332530    0.3068876527111717 O2-
   0.3100193496617899    0.1599855880334136    0.3068876527111717 O2-
   0.2433526829951233    0.4266522547000802    0.3068876527111717 O2-
   0.9766860163284568    0.4933189213667469    0.3068876527111718 O2-
   0.9100193496617902    0.7599855880334135    0.3068876527111718 O2-
   0.7100193496617903    0.5599855880334135    0.3068876527111718 O2-
   0.2484579464532458   -0.0554793231964916    0.3226233934903039 O2-
   1.1817912797865791    0.2111873434701751    0.3226233934903039 O2-
   1.1151246131199124    0.4778540101368418    0.3226233934903039 O2-
   0.9817912797865790    0.0111873434701751    0.3226233934903039 O2-
   0.9151246131199124    0.2778540101368417    0.3226233934903040 O2-
   0.8484579464532460    0.5445206768035082    0.3226233934903040 O2-
   0.7817912797865793   -0.1888126565298249    0.3226233934903040 O2-
   0.7151246131199126    0.0778540101368418    0.3226233934903040 O2-
   0.6484579464532458    0.3445206768035083    0.3226233934903040 O2-
   0.5817912797865794    0.6111873434701750    0.3226233934903040 O2-
   0.5151246131199126   -0.1221459898631583    0.3226233934903040 O2-
   0.4484579464532457    0.1445206768035084    0.3226233934903040 O2-
   0.3817912797865791    0.4111873434701750    0.3226233934903040 O2-
   0.3151246131199125    0.6778540101368415    0.3226233934903040 O2-
   1.0484579464532455    0.7445206768035082    0.3226233934903040 O2-
   1.2007994691024584    0.0277160060757538    0.3298405711616857 O2-
   0.8007994691024590    0.6277160060757535    0.3298405711616858 O2-
   0.7341328024357922   -0.1056173272575795    0.3298405711616858 O2-
   0.6674661357691255    0.1610493394090871    0.3298405711616858 O2-
   0.6007994691024588    0.4277160060757537    0.3298405711616858 O2-
   0.4674661357691257   -0.0389506605909129    0.3298405711616858 O2-
   0.4007994691024586    0.2277160060757538    0.3298405711616858 O2-
   0.3341328024357921    0.4943826727424204    0.3298405711616858 O2-
   0.2674661357691254    0.7610493394090869    0.3298405711616858 O2-
   1.0007994691024584   -0.1722839939242462    0.3298405711616858 O2-
   0.9341328024357919    0.0943826727424205    0.3298405711616858 O2-
   0.8674661357691255    0.3610493394090870    0.3298405711616859 O2-
   0.5341328024357923    0.6943826727424204    0.3298405711616859 O2-
   1.1341328024357917    0.2943826727424205    0.3298405711616859 O2-
   1.0674661357691255    0.5610493394090870    0.3298405711616859 O2-
   1.0059047319648384    0.3455844260940820    0.3455763101045846 O2-
   0.9392380652981717    0.6122510927607487    0.3455763101045846 O2-
   0.8059047319648384    0.1455844260940820    0.3455763101045846 O2-
   0.6725713986315051    0.6789177594274154    0.3455763101045846 O2-
   0.4059047319648382    0.7455844260940820    0.3455763101045846 O2-
   1.1392380652981713   -0.1877489072392512    0.3455763101045846 O2-
   1.0725713986315049    0.0789177594274154    0.3455763101045846 O2-
   0.8725713986315049   -0.1210822405725846    0.3455763101045846 O2-
   0.7392380652981717    0.4122510927607487    0.3455763101045846 O2-
   0.6059047319648381   -0.0544155739059179    0.3455763101045846 O2-
   0.5392380652981715    0.2122510927607487    0.3455763101045846 O2-
   0.4725713986315048    0.4789177594274153    0.3455763101045846 O2-
   0.3392380652981715    0.0122510927607488    0.3455763101045846 O2-
   1.2725713986315048    0.2789177594274154    0.3455763101045846 O2-
   1.2059047319648379    0.5455844260940819    0.3455763101045846 O2-
   0.5582462546140511    0.5287797553663274    0.3527934877759663 O2-
   0.4915795879473843   -0.2045535779670057    0.3527934877759663 O2-
   1.2249129212807179   -0.1378869113003391    0.3527934877759663 O2-
   0.9582462546140511   -0.0712202446336725    0.3527934877759664 O2-
   0.8915795879473845    0.1954464220329941    0.3527934877759664 O2-
   0.7582462546140513    0.7287797553663274    0.3527934877759664 O2-
   0.6915795879473843   -0.0045535779670059    0.3527934877759664 O2-
   0.6249129212807177    0.2621130886996608    0.3527934877759664 O2-
   0.4249129212807177    0.0621130886996608    0.3527934877759664 O2-
   0.3582462546140511    0.3287797553663275    0.3527934877759664 O2-
   1.1582462546140513    0.1287797553663273    0.3527934877759664 O2-
   1.0915795879473846    0.3954464220329941    0.3527934877759664 O2-
   1.0249129212807180    0.6621130886996607    0.3527934877759664 O2-
   0.8249129212807180    0.4621130886996608    0.3527934877759664 O2-
   1.2915795879473846    0.5954464220329939    0.3527934877759664 O2-
