60
Generated C60 structure
C 1.743420 -3.034192 2.981936
C -1.820752 -2.320652 -2.251085
C -0.785014 -1.986508 -2.566814
C -0.830984 -1.920450 2.161640
C -2.218297 3.097846 0.403270
C -2.550941 -2.480853 2.918628
C -2.631310 -2.294738 -2.203096
C 3.109841 -2.968113 1.884043
C -2.737079 -3.022381 3.049465
C -2.766877 2.868377 -2.789081
C -3.085915 -2.500745 -1.399665
C -2.143603 1.895026 1.810086
C 2.746010 0.978822 -2.268815
C -2.612345 -2.737064 -1.510431
C 2.720281 1.235020 -2.698011
C -2.827134 -3.083487 2.667806
C -0.995342 -2.208358 0.009294
C 3.014872 2.888347 2.905861
C 0.717513 -2.351546 -2.866295
C -2.750501 2.991921 -0.718372
C 2.601445 2.130980 -3.135509
C -2.966674 -0.715771 -3.088618
C -2.919672 -2.935021 2.506262
C 2.282505 0.828681 -2.908840
C -1.720664 -2.519018 -2.660782
C -2.971062 2.420762 -2.912055
C 2.677202 -2.440409 -2.390803
C -1.143521 -2.154041 -2.956543
C 2.708305 -2.899724 3.086462
C -2.766226 -0.599352 2.882678
C 1.092497 2.713974 -2.612311
C 2.907776 -2.468391 2.823213
C 2.676189 2.710001 3.005718
C -2.584544 -2.014668 -2.272984
C -1.076423 -2.419938 3.083343
C -2.424420 -2.655297 2.562130
C -3.101141 -2.495174 -2.101054
C 3.063532 -0.228131 -2.946834
C -0.498690 2.293977 3.020789
C -2.412097 2.786362 -2.070369
C 2.768146 3.002596 2.501511
C -0.126867 2.985875 -2.870182
C 1.848749 -3.252995 -0.348061
C -2.510072 2.609468 2.203269
C -0.635743 -2.725958 -2.453086
C 2.621876 -2.713570 -1.430918
C 1.988496 -1.934619 2.446206
C -2.906101 -2.481583 -1.427179
C 2.931339 2.920971 -0.517355
C -1.247187 -2.474791 1.672808
C 2.367556 2.942253 2.691740
C -3.106646 -2.806200 -2.203847
C 2.437416 -3.141000 -1.590281
C -1.551565 1.015632 -1.950165
C -2.408863 -1.296838 2.552098
C -2.794232 0.772106 -1.982204
C -0.997271 2.727981 2.627459
C 1.960315 2.691383 -2.147165
C 2.606595 -1.944193 -2.100463
C 2.718721 -2.569317 1.456044
