60
Generated C60 structure
C 2.253677 2.497185 0.274610
C 1.041582 -2.955696 -2.895108
C -2.754154 -1.702722 2.828935
C -0.358330 1.427080 -1.772078
C 2.890252 2.812077 -0.350924
C -2.785639 1.568033 2.251769
C 2.008010 2.301468 -2.426516
C -3.191595 -1.255782 -1.805679
C -2.755224 -2.758595 2.989471
C -2.290550 2.703611 -1.684544
C 2.579249 2.879973 0.281751
C -2.845490 -1.982369 1.390159
C 2.554855 2.718438 -2.205643
C -2.607521 2.494164 0.500147
C -3.122982 -0.592248 2.568334
C 2.592522 -2.338929 1.402530
C -2.747647 2.228951 2.417545
C -3.082259 2.572852 3.235478
C -2.452532 2.946126 -2.817240
C 2.528337 2.557726 2.899878
C 2.632732 2.793257 -1.442144
C 2.173809 1.965775 3.007812
C 3.147937 1.989610 -2.671361
C 2.648746 3.014284 2.802504
C -2.900785 2.932586 -2.883604
C -2.166402 -2.982407 2.731444
C -2.540353 0.362357 -2.842772
C -2.294433 -2.657088 -2.374373
C 3.061749 -2.562667 -2.778242
C -2.894912 1.977845 -2.672251
C 2.934276 2.590552 2.387221
C 2.593397 2.313068 -1.753901
C 0.938546 2.726978 -2.319702
C -1.556648 3.048815 2.481160
C 2.170010 1.945492 2.638948
C -2.533450 2.451219 2.208333
C 0.795042 2.925626 -2.695837
C -2.949621 -0.478827 -3.064761
C -1.032758 2.666708 -2.704579
C -2.297788 -1.655741 1.135326
C -2.689951 -0.914858 2.893088
C 1.362604 2.810256 1.987906
C -1.617301 -1.820242 -2.750112
C -2.917292 -0.050211 -2.445637
C 2.140894 -1.541682 2.302224
C -2.848057 -2.562371 -2.826447
C 2.568116 2.724658 -2.517528
C 3.093729 -2.071715 0.588093
C 2.221698 -2.708431 -2.879832
C 1.803893 2.636826 2.962034
C 2.435098 1.534568 1.160203
C -1.148311 2.720901 -2.887052
C -2.726986 2.554533 2.668809
C 1.480067 2.873543 -2.871639
C 1.652163 2.655416 1.306347
C 0.924463 -2.961766 2.419135
C 2.452057 1.963557 -2.280916
C -3.062310 2.351130 2.726365
C 2.196234 1.617171 3.086937
C -2.488294 -3.001074 2.730405
