60
Generated C60 structure
C -2.342716 -1.116689 -2.994282
C 2.199731 -2.904392 0.180016
C -2.368231 2.665523 -2.998137
C 1.388913 2.836600 2.866598
C -2.612819 1.725053 -2.861491
C 2.741783 -1.746200 2.831779
C -2.870171 -0.288348 1.477858
C -2.778823 -2.948649 2.880028
C -0.434798 2.735935 3.126182
C 2.927162 2.791136 2.314304
C 2.874412 -2.661738 -2.495394
C -2.497587 2.948939 -2.574337
C 2.692837 1.746778 -2.801460
C 1.344784 -2.535280 -2.970413
C -2.831989 -2.630158 2.447775
C -2.082781 -2.995675 1.889732
C 0.858163 3.139800 2.693015
C 2.032437 -2.697217 2.877001
C 2.915752 -3.096767 2.795095
C 2.668601 1.202050 3.045555
C -1.937387 1.898870 -2.255227
C 2.131882 2.703982 -0.053282
C 2.497033 2.720873 -2.868823
C 1.732414 -2.699171 0.768020
C -2.376235 -1.604930 2.655210
C -0.786311 2.680643 0.202406
C -2.507038 0.819609 2.691815
C 2.451783 -2.263654 -2.909064
C 2.540578 -3.193551 -1.213474
C 3.001412 2.796236 2.439484
C -0.972310 2.820623 -2.192654
C -1.171956 -2.435230 2.893469
C -2.573287 1.841283 2.626442
C 2.931285 -2.599900 2.663375
C 1.766967 2.772676 -2.195615
C 1.336241 2.811682 -2.524697
C 2.607270 -2.159274 -2.589709
C -2.901263 -2.776449 2.191713
C -2.449209 2.135720 2.379627
C 2.086857 2.318335 2.732985
C 2.472570 -2.881222 2.932302
C -2.776977 2.876423 2.796836
C -1.894192 2.793835 -2.922584
C 2.465594 -2.372488 -2.731335
C -2.229578 -2.357832 -1.729306
C -0.889725 -2.901270 2.789156
C -3.054378 -2.476650 2.954594
C -2.053658 -3.168580 0.739810
C 2.589364 1.537441 -1.885138
C 2.165248 2.103162 2.528744
C -2.791140 -2.672905 -0.297840
C -0.299669 -2.953855 0.707167
C 2.982151 2.846963 -2.757040
C -2.708896 -0.223524 2.041282
C 3.033160 1.456935 2.575403
C 2.512306 2.755099 -2.946213
C 2.581787 -2.362659 -3.026115
C -0.707380 -2.871384 -1.936903
C -2.432536 -2.810614 0.879726
C -3.044886 2.668508 -2.707327
