60
Generated C60 structure
C 2.438903 2.873293 2.011527
C 3.053797 2.528718 2.465385
C -2.925766 1.976649 2.962798
C -2.793614 -3.119236 3.170370
C 1.797534 -2.716279 -2.788083
C -2.664899 2.694858 2.315449
C 2.235322 -2.371530 2.513357
C 2.832414 -2.935337 2.795625
C -2.806286 -2.974635 2.773125
C -2.125875 2.238052 2.889777
C 1.103300 2.515985 1.496025
C 2.470659 -2.998597 -3.139134
C 0.843293 -3.133342 -0.103872
C 3.088959 2.526138 -2.749479
C -1.713275 -2.295295 -3.097747
C 2.076836 0.641171 2.432121
C -2.766958 2.608741 -2.270057
C 2.665201 2.715573 -2.366132
C -2.418290 -3.080734 -3.020373
C 2.777706 -2.770085 1.778724
C -3.180225 -2.713003 -2.848775
C -2.368445 1.476314 -3.011608
C -2.923047 -3.001798 2.069107
C 2.044249 2.542186 -2.797628
C 2.174442 -0.217558 2.332315
C 2.081000 -2.907398 2.550191
C -2.645227 -2.694682 -2.282671
C 0.688979 -2.787868 -3.071034
C -3.144686 -3.038285 3.011286
C -2.436633 -2.904214 -1.980529
C -2.430211 2.807529 2.817184
C 2.112710 1.715529 2.264347
C 2.626717 -2.560862 2.881011
C -3.089298 -3.020166 1.306037
C 2.717983 -2.425630 -2.950940
C 2.963349 -2.601727 1.346771
C -2.294583 -2.462368 -2.540631
C -2.661561 -3.070761 2.688924
C -2.412230 -3.011510 2.594347
C -2.430455 -2.893072 2.186092
C 2.866738 -1.532187 -2.372665
C 1.745523 2.703630 2.765970
C 0.656088 -2.601273 2.884929
C 0.765583 -2.965438 2.625888
C -2.954147 1.452531 -1.596030
C -2.446552 0.309332 1.572334
C -3.133152 -1.704268 -1.779904
C 2.462546 2.897390 2.376491
C 2.437844 -0.778325 2.913587
C -2.685906 2.497336 2.656409
C -2.420287 1.286732 2.313128
C -1.570971 2.927710 3.088255
C 2.858374 0.089033 0.459637
C -0.922584 -0.999877 -3.114552
C -0.716940 2.574254 -2.600668
C -2.127123 -2.155731 -2.258723
C -2.950494 -2.759923 -2.585113
C -2.128454 2.914924 -2.806905
C -2.811905 1.413380 2.856982
C -0.195162 -2.173493 3.010638
