60
Generated C60 structure
C 2.602416 -2.528910 1.289719
C -1.560822 3.065127 2.603638
C -2.844544 2.258463 -2.333364
C 2.823081 2.789854 -0.940308
C 2.079901 2.389864 2.486347
C -2.336869 2.550977 -2.280616
C 1.616305 1.940880 -1.638499
C -3.092835 -3.126450 -3.155158
C -2.169457 1.725994 -1.703934
C 2.758600 2.297619 2.477728
C -2.476475 -1.026427 2.613382
C -2.707949 0.731382 -2.952965
C -2.828663 1.983129 2.711128
C -2.372517 2.952358 -2.627555
C 2.743970 -2.983853 -0.621324
C 2.574834 2.662484 2.526579
C 1.767276 -2.147247 2.532846
C -2.667888 2.840627 -1.811143
C -2.916444 2.888769 -2.929386
C 0.881678 -2.672489 -2.772524
C 2.913939 -2.795204 2.786897
C 2.468654 -2.373715 -2.469772
C 2.490440 2.413085 -2.930723
C 2.052385 2.968155 2.807596
C 1.349533 -0.535977 2.935694
C -3.235549 1.352056 -1.998167
C 2.383617 -2.027675 -2.769171
C 0.890575 2.510111 2.712407
C 2.936561 -2.511348 2.691864
C -1.421697 2.872568 -2.709973
C -2.821639 1.265774 -2.332072
C 2.142409 -2.627403 2.930354
C -3.049232 -2.568184 3.192888
C -2.969943 2.725465 -2.668954
C 2.079810 -2.992661 3.066005
C 2.162669 -2.603295 -2.891586
C -2.635815 -1.163417 1.413230
C 2.807968 -1.563472 2.178576
C -1.905767 -0.768010 -0.144572
C 2.404258 2.784726 -2.939927
C 2.474854 2.643929 3.058855
C 2.769746 -2.730638 2.151697
C -2.664251 -1.426594 2.511316
C -2.781490 -0.134447 2.325822
C 2.617372 -0.536330 -2.848176
C 1.134883 -0.561038 -0.241369
C -2.428293 2.496481 -2.431893
C -3.146102 3.032194 3.107859
C -2.653326 2.390529 3.054487
C 0.235796 -2.886158 -2.584376
C 2.888690 -3.027603 0.156257
C -2.851942 -0.315344 2.435121
C -2.207682 -0.323300 2.506188
C 2.776227 -3.121661 3.064289
C -2.353306 -2.314265 2.036237
C -2.364630 -2.893205 2.294058
C -2.421943 0.567464 -2.472939
C 2.904624 -2.847972 -2.862105
C -0.256121 -2.656756 2.993135
C 1.717411 3.046128 -1.844161
