   492
 Tv_1:  21.216475   0.000000   0.000000 Tv_2:   8.896367  22.539202   0.000000 Tv_3:   0.000000   0.000000  23.955742
Ti     14.61027166      1.49322959      0.07917489
Ti     14.48574195      3.07159726      0.18252241
Ti     10.61432988     15.89032994      4.71469649
Ti     16.18067437     22.49733391      0.21487387
Ti      6.05501054     11.25369324      0.18246831
Ti     28.05242350     18.09087086      4.60904812
Ti      5.05702655      2.53521168      4.65741876
Ti     10.02808888      5.54304309      2.70703839
Ti     25.03148127      3.91365984      3.81428877
Ti      5.03352492      9.01159263      0.09229993
Ti     12.68339625     14.00058044      0.14554783
Ti     20.38413816     15.19361998      0.18917451
Ti      8.06296707     17.77229683      3.72037127
Ti     19.76498330      6.05069331      2.89528605
Ti     16.39049467      9.77597792      2.60256401
Ti     23.75551622     14.75234544      0.26455608
Ti     17.91916069     18.22933005      4.60488893
Ti     10.39278546      7.99054451      4.64320205
Ti      7.60747105     10.14928294      4.62918772
Ti     16.53401243      1.37573496      4.63405426
Ti      6.41400236      0.52247682      4.61455493
Ti     19.87930443     -0.10007733      4.64753785
Ti     20.17670226     17.57986619      4.56880948
Ti     11.36634270     17.34850552      4.63612112
Ti     18.93463665     19.47050098      4.71574223
Ti      8.15093595     18.86571109      4.78673261
Ti     15.50409272     12.83970017      4.66747098
Ti     22.59787378      5.81008281      4.66492504
Ti     13.48214188      4.65748045      4.66491453
Ti      3.62738896      2.95707789      4.93902816
Ti     25.48150843     13.02359301      4.66333738
Ti     22.54720747     16.78123901      4.73073361
Ti     13.67586086     15.89407510      4.61131430
Ti     19.61695138      9.33655754      4.66489876
Ti     21.55639176     19.56968843      4.68639781
Ti     10.73154498      0.17999320      4.70987170
Ti      9.36663055     12.93587482      4.70988963
Ti     14.25424440      7.76197197      4.65121261
Ti     13.12856926     19.10253423      4.72755048
Ti     25.95095581     17.08672978      4.68930077
Ti     10.09695258     21.06271578      4.67360466
Ti      8.13008539      3.15377058      4.66960977
Ti     22.01309609     10.86370800      4.68189131
Ti     20.80597134      2.58885445      4.67423198
Ti      4.75922012      4.87678172      4.71077866
Ti     11.75559178     10.62719573      4.66103357
Ti     18.80540886     12.73943404      4.70450181
Ti     24.28332046      8.08917477      4.68248593
Ti     17.00115059     16.25494555      4.69093567
Ti      6.49165338     15.16845926      4.74279333
Ti     16.93123581      4.50776167      4.61190747
Ti     19.62343614     17.72054706      9.02087915
Ti     11.69426680      3.36426178      8.96207598
Ti      8.51628000      6.14256492      8.97088387
Ti     21.76648721     14.49538750      9.00357058
Ti      5.98188674      8.73685548      9.01268852
Ti     16.53651933     19.63085979      9.01279822
Ti     29.11397748     18.23681364      8.93646923
Ti     14.30591290      0.67900959      8.99884766
Ti     14.00586977     22.15329348      9.00121071
Ti     25.98587714     20.92764533      8.98770011
Ti      2.11585609      1.88667048      8.98482695
Ti     24.84246544     11.85257189      8.97768661
Ti     15.21273698     10.45230903      8.99210691
Ti     20.75935415      4.97457483      8.98540058
Ti     12.43074185     12.93031579      9.02779606
Ti     10.44650035     15.84254111      8.98590880
Ti     17.96918606      7.52260981      8.97870645
H      13.29383964     10.04866882     12.16009988
H      21.91413380     13.63941645     12.10210456
H       9.01993214     18.50530202     11.43741701
H      17.70169304     21.84907861     12.13784856
H      17.59719366      2.75209899     12.17739168
H       4.85570742      6.76879953     12.04966145
H      14.67149268      7.31053409     12.18240309
H      22.68866165     10.72556340     12.15302598
H       9.37546261     13.90880330     12.11807822
H      18.12520597     17.51726968     12.15848559
H      26.87669700     21.81733002     12.13948733
H       7.39721251      2.64083386     12.20410086
H       8.39817554      7.51442494     12.12393721
H      16.53163611     10.66554304     12.23122736
H      24.33486940     15.70657392     11.97323463
H      11.87951337     19.55185720     12.07551666
H      11.58601010      0.82562027     12.22205528
H      19.95430224      3.96158922     12.03162523
H       9.78852498      5.37948165     12.08720301
H      19.20038634      8.90046033     12.11396941
H       6.26397199     12.58837719     12.12577290
H      14.79562708     15.86502660     12.10985511
H      23.93577955     20.60801273     12.14691706
H       1.71291152      0.77373692     12.16777138
H      10.48847593     17.55982998     12.23879762
H       6.00246957      5.45397633     12.14525292
H      10.04339533     10.20453437     14.79880319
H      15.20174572     12.04622118     12.97610354
H      27.48668388     18.94245950     14.44652885
H      10.76578203     20.77949790     12.21881373
H      13.19582997      3.11711478     16.36108840
H      18.71998300      5.31640990     14.66336681
H      11.26032494      6.18287333     12.18460004
H      20.49868953      9.80802996     12.19568982
H       7.25810587     13.97805279     12.21024220
H      15.84789723     17.27439667     12.22537590
H      24.34037659     22.22616290     12.21512313
H       2.69495554      2.14360167     12.19197861
H      14.83242927      8.90627521     12.18250161
H      23.34162625     12.97513200     12.15796384
H      19.17056922     20.65291173     12.21097536
H      18.07538398      0.80567044     12.18827088
H       9.64529250     12.47447623     12.16187913
H      18.20452620     16.07941678     12.15708096
H      27.21262107     19.84898905     12.14530294
H       5.96393578      1.33214905     12.16448220
H      13.98819976      5.15408511     12.16463105
H      22.76528329      8.84971543     12.14984292
H      18.83371248      4.56419808     14.60512838
H       6.29817909      7.76639472     14.76410326
H      15.40451248     12.87566750     14.50871594
H      23.00980635     15.18011834     14.62193668
H       9.95852614     18.28431497     14.60138843
H       9.36388269     -1.78495298     14.46697465
H      11.61674675      5.84353506     14.55174631
H      20.32734569      9.64230622     14.50449304
H       7.64976175     13.50825889     14.45494983
H      15.73451206     17.10930803     14.48275872
H      24.61900848     22.05388775     14.52291889
H       2.76361773      2.08557791     14.52335742
H      15.12373804      9.42491791     14.60393136
H      23.28464449     14.27369936     14.51933357
H      10.82286182     18.93947237     14.57012179
H      20.56897942     24.09708618     14.62831944
H      19.11560604      3.43601423     14.57842841
H       6.39328205      7.16257047     14.45540160
H      13.65203974      5.46942101     14.50952186
H      22.14291699      9.24274027     14.49465830
H       9.54828456     12.79963110     14.52624337
H      18.58974023     16.25179111     14.50057441
H      27.23473415     19.69447724     14.53603910
H       5.88024351      1.39961817     14.53276819
H       7.71008443      8.18466346     20.97264645
H      24.69607461     16.43570787     20.97273549
H      12.29029454     19.78958047     20.98020633
H      20.32309157      4.11488953     20.95915821
H       4.78942143      8.55978063     24.05659716
H      24.25784801     17.16527348     20.99506999
H       0.71015414     -2.51944331     24.08450905
H      19.18508900      6.84177477     21.01748315
H      16.40230788     11.92536350     20.95128866
H      12.07384762      0.85985071     20.96959099
H      15.38308705     14.13107551     20.92027767
H       8.17113743      1.80676010     24.11377148
H      11.44526283     11.28951491     20.96089538
H       7.11782538     18.58818279     20.96896557
H      15.89690092     22.58245000     20.94705331
H       2.93196527      7.48960898     20.97162200
H      19.63346462     15.63006621     20.97369326
H      15.30130783      3.17597972     20.97870496
H      11.43243025     15.88395910     20.93518671
H      19.91006735     19.73042936     20.91235440
H      28.31068766     23.27901270     20.91722622
H       6.86793247      4.87438509     20.92776010
H      15.52677923      8.49154166     20.93545464
H      23.91462666     12.28574533     20.93743404
H       5.72713605      5.51491517     20.94067203
H      28.14271755     19.91875653     20.94788021
H      23.50249764      8.55748159     20.94932907
H      22.98862923     16.49501690     20.94302349
H      10.61042883     20.26705866     20.94170619
H      18.86570184      5.22232941     20.94145635
H       8.19334626     14.70304889     20.94310130
H       3.74222737      3.49122276     20.93951855
H      14.60564224      9.52320382     20.94214170
H      22.52119446     13.17678221     20.95025010
H      10.04402794     16.85412214     20.94127089
H      18.69993865     20.52757501     20.94221836
H      18.36954556      1.77659597     20.94144862
H      10.81881847     12.46033429     20.94641556
H      20.03358393     16.60236517     20.95617578
H       6.56197717      1.50075776     20.95244314
H      14.86471180      4.70355198     20.94985845
H       6.17093763      9.05709201     20.94663189
H      15.08477136     13.04986837     20.93728258
H      10.18387078      1.41637769     20.94135087
H      12.53720676      7.13191362     20.93854366
H      20.68469340     10.50913183     20.94148194
H      16.61695508     18.03943008     20.93926342
H      25.17658075     21.56247706     20.94419939
H      19.51961405     18.69585657     20.92066870
H      15.12364967      7.71200358     20.92459793
H      12.26145258     11.08944406     20.94797919
H      21.10795474     14.72013106     20.98487548
H       8.59349367     18.30848358     20.94730819
H      17.00651851     22.04460261     20.95685387
H      16.79291836      2.94527684     20.94834250
H       3.96476478      7.19028333     20.98995384
H      11.13448492     15.01234155     20.91900568
H      27.98945325     22.49496662     20.91175199
H       6.63599762      3.62931626     20.94198463
H      23.51044675     11.55871321     20.93357013
H       7.45919150      6.90828507     20.92084303
H      16.20717704     10.98190445     20.98660113
H      24.47055130     14.98679806     20.99055102
H      11.99210542     18.38528055     20.95131185
H      11.77776891     -0.45033400     20.91247087
H      20.02351321      3.27609989     20.97255141
H       8.09898775     12.50011454     20.94786710
H      17.03406591     15.90087154     20.94259072
H      25.32786193     19.52398844     20.99700364
H       3.73801562      1.36511210     20.95966912
H      12.37848175      4.97241356     20.97895358
H      20.82830894      8.44358195     20.96152280
Pb     11.60641566     11.38359641     12.12109219
Pb     15.88930760     22.33489250     12.13345614
Pb     19.85399484     14.62606844     12.14180519
Pb      5.59781144     17.02091245     10.70529069
Pb     15.06834064      1.94312258     12.11566277
Pb     23.40689006      6.76140887     12.12944681
Pb      4.00039407     11.83328313     12.13270591
Pb     -0.58628739      1.48998417     12.12800473
Pb     11.25432695     15.50595838     12.12952106
Pb     20.19841838     18.94267922     12.12712090
Pb      7.98052275      4.91342326     12.13333037
Pb     16.93870667      8.18122720     12.14610905
Pb     11.33961641      8.44386443     16.63212566
Pb     19.77707299     12.08963849     16.64836291
Pb      6.92068446     15.86822409     16.64281776
Pb     15.48596028     19.21359973     16.62884254
Pb     15.47645304     -0.07352939     16.65784915
Pb     24.04395983      4.14477969     16.62993398
Pb     26.44630559     10.81934388     16.64499581
Pb     22.33525868     18.84982514     16.63973576
Pb      1.08560693     -0.38830689     16.64259781
Pb     17.97865984      7.25818547     16.62402636
Pb     13.71418588     14.96073006     16.64298767
Pb      9.58693030      3.07162569     16.62597482
C       9.59805531     18.15058550     12.17554465
C       6.12601657      6.60761108     12.20199852
C      14.50565038      9.97239472     12.10417885
C      22.95833720     14.09106298     12.15658235
C      18.84982311     21.71541410     12.12922069
C      18.44081598      1.92706586     12.11373446
C      10.41219360     13.24875352     12.14464934
C      19.04804089     16.78280454     12.13216550
C      27.53678692     20.82062672     12.14356203
C       6.18478505      2.43074128     12.12817050
C      13.95348325      6.31091525     12.14053301
C      23.42849808      9.75944643     12.14450511
C      23.28152063     15.32681197     20.98425905
C      19.02794691      4.05374880     20.98057301
C       8.64477255     13.62647158     20.94253160
C       4.23473016      2.42685523     20.95174686
C       6.45031240      7.84846804     20.98162755
C      15.16618179     11.72963779     20.97074688
C      10.95401463     19.14732761     20.98195066
C      10.63042614      0.35124717     20.97174104
C      12.95846749      6.03270396     20.95481295
C      21.31696255      9.53143598     20.93504946
C      17.33241789     17.10985585     20.96216986
C      25.77859542     20.55156765     20.92154369
I       7.68185046     10.19826980     12.14766372
I      16.99975446     14.02364861     12.13244262
I      24.75091854     18.56353222     12.15861578
I      13.35913440     21.47404999     12.13056770
I      12.33420830      3.10961238     12.14795489
I      19.98946597      6.46806832     12.12921415
I      10.66829552      8.53246264     12.14828105
I      18.24780063     11.14296697     12.13386387
I      26.02252394     14.47164306     12.14944402
I      13.44835857     17.81536157     12.13559499
I      21.83375229     21.47745153     12.14102491
I      22.23505402      4.10975468     12.11997979
I      13.11340231      8.02110841      8.87812521
I      21.27054863     11.77926925     12.16197873
I       8.23812246     16.12729659     12.12942475
I      16.80923772     19.34601396     12.13822958
I      17.79545788      1.58655432      8.87788467
I       4.45032527      3.73389872     12.14787993
I      13.89778178     13.68835388     12.13521101
I      21.88434937     16.87986211     11.18260187
I       8.58766291     20.73913018     12.13871987
I       8.56673136      2.13647361      9.01510894
I      16.31889097      4.83945569     12.14936149
I       4.49759306      8.92576286     12.12418046
I       8.39877044     11.28784028     16.69472738
I      17.04519356     15.23214791     16.67447201
I      25.67950285     18.73876561     16.62190720
I      13.12740432     22.67280299     16.68740586
I      12.39982065      4.74166997     16.67989360
I      21.26171746      7.61013960     16.66527929
I       8.23772628      7.00137006     16.62052218
I      16.69427486     10.87442680     16.61638346
I      25.19539582     14.38291941     16.68189317
I      12.35176735     18.25920923     16.64955207
I      20.97161527     22.55641651     16.63766131
I      20.77389881      3.39500064     16.66537255
I      10.08016278     14.78985219     16.59401223
I       6.15381184      3.65533561     16.67122064
I      12.67038563     11.58688267     16.66261836
I      21.28216444     15.36388413     16.63880654
I       8.54716844     18.97008292     16.63726073
I       8.14559190     -0.19930902     16.67478029
I      16.63314430      3.69953348     16.66666380
I       4.19457851      7.55142208     16.67513435
I      14.61670655      7.61832397     16.61439431
I      22.89654279     11.13712897     16.65935609
I      18.86827736     18.72091106     16.63123862
I      18.83857122     -0.06073295     16.69156303
I      26.81772738     17.43527217     20.94337630
I      22.08825293      5.78685175     20.95013817
I      26.85313705     12.15454101     20.99599632
I      22.21309376      1.73296951     20.95991427
I       9.40936302      9.74128734     20.94552753
I      18.39821491     13.71435036     20.94687813
I      13.80643618     21.30872576     20.94658090
I      14.66746756      1.35388835     21.04442598
I       9.68605212      5.51485638     20.94564534
I      18.06601313      9.46418754     20.95370838
I      14.03346760     16.92032695     20.95718399
I      22.46128011     20.50379156     20.95113489
I      19.15781467     18.30544824     28.61937606
I      13.75179826      8.26531931     24.23326514
I      22.55297509     14.72952358     23.92042594
I      11.67373899     16.26138252     28.23260481
I      15.46621790      2.39296600     23.94865233
I       4.47226367      3.68577576     28.77232004
I      11.70357266     14.49895316     24.27649177
I      21.14010456     16.12728515     24.06727066
I       7.92243858     17.64769173     28.76512010
I       6.41008198      0.74381924     24.07878095
I      17.25142028      3.38438594     23.99700102
I       5.36542675     10.34542921     24.06555316
N       7.38849745      7.26364685     12.13054803
N      15.40552213     11.13391743     12.16354642
N      23.43671431     15.27661175     12.19150011
N      10.85262449     19.70513111     12.14736398
N      10.43056767      0.51459561     12.16367974
N      19.07527286      4.44380755     12.15763634
N      10.91551112      5.11353357     12.15527613
N      20.27114837      8.78353542     12.15303641
N       7.27494726     12.90700362     12.15939304
N      15.82343250     16.23833134     12.14176138
N      24.77821110     21.28507615     12.15745229
N       2.84399452      1.07048394     12.14134619
N       9.71689453     17.94417622     20.94837630
N       5.27296405      6.60627368     20.95679412
N      27.47999011     20.88004436     20.95406906
N      22.99254040      9.61935669     20.94504174
N      14.01164195     10.52716019     20.94789469
N      22.18709562     14.22052694     20.94198305
N      18.26807733     21.62758725     20.94965059
N      17.91294510      2.83181656     20.94400862
N      10.33622528     13.47466301     20.95350558
N      19.01073119     17.44033396     20.95283063
N       5.93543712      2.51109100     20.94258830
N      14.68438456      5.85396362     20.94305663
O      15.80046948     12.18465616      2.60975599
O       8.91189900     16.95064076      4.79878773
O       8.73429104      8.09634180      2.58605762
O       6.34677378      9.74188978      0.17181160
O      19.43379058      8.81196364      2.61833629
O      22.17614209     15.75178654      0.20631191
O      12.45904127     15.33504625      0.11075053
O      18.89225511     17.13079213      4.68566021
O      16.20121228      3.38575575      0.22572491
O      18.99159727     18.42995548      3.51383843
O       5.62348667      0.08683773      0.16467591
O      12.97240136      4.64948855      2.62939353
O       2.36285662      2.83715351      4.21472666
O      25.22281470     12.98240895      2.64811399
O      12.00536374     16.72446981      3.23842589
O      22.28320569      5.40183814      2.62087510
O      26.35958763     22.51553119      2.54805576
O      17.78224048      8.14922498      4.66789345
O      19.05495774      6.09117159      4.64002478
O      15.78421753     10.19378156      4.60003164
O      26.26845184     19.09893507      4.68774028
O      22.86342408     21.78208707      4.67121267
O       7.97617083     16.40676903      4.56902627
O      10.30076413      4.78301057      4.66074693
O      23.20746517     13.42423641      4.65977388
O      23.29545183      3.94757401      4.70964722
O      18.85832694     14.86231970      4.70671234
O       5.33187505      9.52167381      4.62658896
O      11.81171879     15.07151128      4.54567171
O      15.08582819     20.67097673      4.69603246
O      13.18084870      2.73286802      4.71823087
O       3.86767170      0.83885536      4.64548897
O       6.94718190      6.88074445      4.67596538
O      17.20366357     19.72912932      4.73913586
O      13.19528750     19.69268374      2.48752990
O      25.97229750     17.31702328      2.45461210
O      10.73309210      0.34498009      2.57208713
O      17.57433369      2.54599367      0.53518081
O       5.44741768      3.72677320      5.31823957
O      18.65908653     13.02632020      2.49889097
O      24.15759003      8.10440396      2.47686171
O       9.37165266     12.27551872      2.43264865
O      21.89271093     20.02980843      2.45173153
O       9.79283067     21.13788084      2.52070648
O       7.58895059      1.82215226      0.14962847
O      16.60105285     16.52056756      2.38368488
O      13.54689119      7.21431709      0.14138445
O      20.96667734      2.19266173      2.53721354
O       6.64428957     14.67714672      2.53740750
O      21.78688293     10.88946312      2.51324008
O      13.16184496      9.14264718      0.13650394
O      12.35425475     15.86585516      4.98441663
O      16.04745862     -1.41406153      4.65919917
O      13.92292040      1.69520719      4.83123327
O      11.34312595      5.89402699      4.69474652
O      17.24756855     10.41049388      4.68749758
O       7.91053936      7.95424325      4.70982632
O      24.47074562     19.89216367      4.74902061
O       6.33348267     12.22904063      4.73349752
O       9.21971431     17.88613154      4.70434132
O       5.93916592      3.70723388      4.52961349
O      24.07241685     15.21395498      4.68489106
O      17.18080043     21.17968398      4.66809008
O      27.92986782     19.77017375      4.67387389
O       3.33328356      4.49178452      4.94103009
O      20.13914719     18.89130419      4.69159336
O      20.69164117      7.27721224      4.68315446
O      13.16641289     13.32814718      4.69737355
O      21.59279836     13.58977283      4.69199197
O      14.07758954     10.51110480      4.69723295
O      19.42832068     16.13072626      4.59568544
O       8.63852090      5.53656587      4.70008919
O       5.35689387      7.98106312      4.71802781
O      15.51080471     18.70631114      4.70048400
O      22.14410925     22.79194434      4.73109029
O      12.97985994     22.08299666      4.72121968
O      10.77712238      3.06948869      4.67861099
O       1.92138310      1.25887041      4.70052485
O      24.27611134     10.88835928      4.68604638
O       8.63862387     15.44163121      4.69796934
O      28.20207177     16.81032273      4.64224145
O      17.09689453      7.19655031      4.71667072
O      26.90055652     21.45363217      4.66082243
O      19.88180357      4.65417749      4.70326585
O      11.90065822     13.58891940      4.68712302
O      18.41687333     12.76898758      6.58528532
O      11.39837425      9.73898693      6.59146102
O       9.33541785     12.26590658      6.58139216
O      16.69355247      3.85149931      6.84334703
O       7.69293497      2.97039566      6.59712766
O      14.12249385      6.51227101      6.51441763
O      21.20981703     10.46692043      6.62624566
O      25.84643952     17.04207171      6.71527355
O      21.45411891     19.38110147      6.70372195
O       6.40797111     14.43457898      6.56738519
O      12.66617712     18.83505394      6.55366129
O       9.75461047     21.34873907      6.63608080
O      20.37740375      2.11801711      6.60175104
O       4.42311832      3.94041733      5.77643832
O      23.78589358      7.50853370      6.65967930
O      16.31511323     16.14840079      6.66738519
O      19.41252595     22.71348548      6.97340231
O       6.70680165      9.24546320      7.13028983
O       2.56006496      2.23861051      7.23773965
O      16.79586561     19.86527095      7.08312771
O      14.61128911      0.94425545      7.09202018
O       5.59186713     -0.02021912      7.12514795
O      12.24583180      3.74296190      7.08540858
O      26.34789877     21.36040460      7.14245264
O       8.98528460      6.76732351      7.12034436
O      15.61446626     10.82552187      7.08700204
O      22.16881779     15.21074693      7.22222482
O      21.20679423      5.39389392      7.08529062
O      12.95504451     13.51971199      7.13869510
O      19.34602874     18.20374950      5.83559743
O      10.69837342     16.12985108      7.12957695
O       8.26029908     17.51844411      5.91565237
O      18.41509738      8.12492092      7.14113529
O      25.09009509     12.29133045      6.97239257
O      23.74185339     21.25362253      9.00367860
O      12.44768153      1.43626239      9.00719534
O       3.27737716      0.17273027      8.96554162
O       9.93818518      4.52716276      8.97583609
O      23.04379847     12.85522767      8.95073559
O       6.45846338      6.74164382      8.98387831
O      19.54052095     14.97198312      8.96972656
O       4.28077695      9.79555752      8.96774061
O      17.24030734     17.88744185      8.96409420
O      14.70284452     20.13778295      8.96916426
O      26.83840191     19.23298719      8.95684334
O      15.97556480      8.41016298      8.98629667
O      21.78593332      3.28025424      8.99290814
O      10.60039318     13.83893305      8.97245847
O       8.42172481     16.36722873      9.00319175
O      18.80660778      5.72273508      8.96443817
O      13.37829186     11.18017587      8.94935816
