60
Generated C60 structure
C 2.979374 -2.660720 2.789581
C 2.331043 0.283421 -3.055609
C -2.770975 -1.624387 2.698068
C -2.284939 -1.419688 -2.847359
C -0.588051 -2.374104 -2.721704
C -1.190782 -2.674949 -2.875146
C -1.248597 2.531313 -0.293466
C -2.656317 2.703807 -2.719294
C 2.866762 -2.533372 3.009924
C -2.856924 1.914016 -2.805969
C 2.310420 0.055578 2.932848
C -0.205524 -2.650295 -2.854789
C -2.260220 0.182221 -2.556700
C -1.872941 2.915807 2.680903
C -2.569882 -2.905494 -2.415630
C 0.823882 0.770159 2.795047
C -2.743359 2.787597 1.094595
C 2.993125 -2.700218 -0.491809
C -2.184844 2.888779 0.749788
C 2.123368 2.748168 2.417055
C -0.930958 2.984739 -2.918432
C -2.465397 2.818786 1.214999
C -2.951005 2.410425 2.668792
C -0.995708 -3.151621 2.693745
C -1.734080 2.434847 -2.672241
C 1.526980 -2.767045 -2.805207
C 2.765677 -2.699001 -0.539303
C -2.509131 2.611889 1.136489
C 0.487483 -2.340839 -2.777730
C -1.811790 -2.837699 -2.038622
C 2.994234 0.679150 3.102970
C 2.462725 -1.605329 -2.768826
C -1.364830 -2.272683 -2.473140
C 2.640875 0.369439 0.427569
C 2.801508 2.304306 -0.801400
C 1.764266 2.440478 -2.376880
C 2.238109 -2.757159 -2.569903
C 2.446623 -1.170086 -0.524693
C 3.015032 -2.399398 -2.875893
C 1.646453 1.562690 -2.514189
C 2.918559 2.380702 2.508569
C -2.509371 2.722198 2.725401
C -2.732134 -2.532575 -2.727273
C -3.032675 -2.498034 2.859147
C 3.054829 2.521901 3.056995
C -2.385311 -3.063450 2.513945
C -2.677284 0.851986 -1.818435
C -2.710815 1.511159 -3.006088
C 2.363669 0.913786 2.858006
C -1.144081 2.871351 2.620865
C -2.776180 -2.661590 -2.596891
C -2.943164 2.854221 -2.555185
C 2.786545 1.357087 2.161892
C -2.861124 2.859899 -1.600505
C -2.544683 -2.262683 -0.890947
C -2.912437 -2.571034 2.058848
C 2.791021 2.473473 2.823362
C -2.997039 1.304761 -1.907443
C 1.778472 1.186488 2.758700
C 2.871100 2.683530 2.173470
