60
Generated C60 structure
C 2.820228 -2.319628 2.124447
C 1.715080 -2.997601 -2.467316
C -1.934027 -2.863319 -2.886289
C -2.922413 -2.739408 -0.986355
C -2.731279 -2.876673 2.749679
C 3.126977 1.719740 2.904299
C -2.432684 3.091895 -2.795732
C 2.431962 -2.860608 -2.921958
C -2.925946 0.973521 -1.767937
C 1.961194 -2.886442 -0.493372
C -2.897135 1.924863 -2.960787
C -2.303780 3.066844 -2.849221
C -3.026198 3.038903 2.692327
C 2.787559 2.990048 -0.382649
C 2.654075 2.309675 -2.943632
C -2.462831 2.628134 -2.469686
C 2.570314 -2.745955 -3.011183
C -2.661405 -2.724980 1.258654
C 2.821560 2.266664 -2.269440
C 2.595937 2.361606 3.169355
C 1.771610 3.095184 -2.399803
C 1.154440 2.305584 2.484940
C 2.842304 -2.284787 2.956205
C 2.987751 2.758787 -0.211588
C -2.114837 2.999861 2.722221
C -3.051425 -2.834656 -2.929177
C 2.800424 -1.731134 2.663666
C -2.747563 -2.426208 -3.095744
C -1.067206 0.242427 -1.941927
C -2.863683 2.484981 -1.597201
C 2.325674 3.014477 2.325843
C -3.021579 -2.789248 -2.457229
C 2.391648 -2.217848 3.185780
C -2.692641 -1.214879 -1.944233
C -2.734958 3.245107 -2.298707
C -2.919562 -2.920441 2.625319
C -2.734034 -1.349958 1.643633
C -2.505105 -2.140689 2.852093
C 2.691711 2.312708 2.710733
C -2.847025 -2.785700 2.502542
C 2.554860 2.538499 -2.466064
C -2.248328 -1.145922 -2.280291
C 2.530998 -2.519952 0.975903
C -2.989850 2.955099 -3.038010
C -2.469790 2.674041 -0.899569
C -2.501469 2.821269 -0.676478
C 2.382992 -2.906878 -0.260793
C 3.018145 -0.037877 -0.756458
C -2.052810 1.666168 -2.929355
C -2.464732 -1.738589 1.563567
C -2.118520 1.894844 2.287127
C 2.900546 1.996843 2.891212
C -2.458970 3.041980 -3.050586
C -2.501370 2.962427 -3.106883
C 2.157941 2.513818 2.726410
C -2.738925 3.172220 2.667119
C 2.721719 2.577899 -2.473545
C -2.923355 -3.143628 2.466936
C -3.067182 -2.931657 -3.014312
C -2.980477 -2.933543 -0.401956
