60
Generated C60 structure
C -2.568498 2.187128 2.465038
C 2.784636 2.600674 2.669550
C -2.777725 3.104338 2.279864
C -2.757999 2.651103 -3.016339
C -2.329015 -2.711312 -2.463151
C -2.826827 2.157490 2.633523
C -2.536157 1.014602 3.201381
C 2.942990 2.954078 0.851971
C 2.060760 -1.118744 0.330908
C -1.022694 2.541224 -2.620269
C -2.984188 -2.654903 -0.151634
C 2.282792 -2.485934 -2.777619
C -2.890427 -2.673834 -0.456398
C 1.051613 -2.483930 0.068141
C 2.638195 -2.926622 3.024240
C -2.172239 2.942531 1.325142
C 2.910999 -0.690575 2.557491
C 2.923636 -3.073896 -2.299948
C 2.973238 2.224241 -2.732976
C -1.891066 -2.702264 1.708210
C 3.226640 -2.626871 2.672378
C -3.111702 -0.985385 -2.236527
C -2.807551 2.623977 -0.156032
C -0.900310 2.443841 2.227296
C 2.443743 -2.866726 -2.656943
C 2.858236 1.808361 2.666476
C -2.970451 -3.059280 -3.108827
C -2.956100 2.708841 -2.923199
C -2.925523 0.889255 2.754589
C 3.133888 -2.688093 -2.717885
C -2.075563 -2.859838 2.782071
C -2.202147 -2.021572 0.647881
C 2.435534 2.798796 -2.186716
C 2.502218 -2.385431 2.808105
C -2.507928 2.623874 3.038629
C -2.497177 2.788664 -2.428029
C 2.417881 2.446975 -3.059276
C -0.802111 2.155606 2.393343
C -1.263453 -2.527810 2.862010
C -2.855110 2.186311 2.088633
C -2.445498 0.793052 1.914868
C 2.237702 -2.752871 -0.796871
C 2.883731 2.335390 -2.395360
C 2.949438 -2.886766 2.194455
C 2.346409 3.139174 -2.840061
C 1.111729 -2.850374 2.442174
C -2.500056 -0.286086 3.159591
C -2.202686 2.429731 -2.019460
C 2.914555 -0.901624 -2.993324
C 2.646712 -1.839646 1.703722
C -2.923198 2.551952 -2.735110
C -1.261060 -0.365868 2.454957
C -1.922071 2.957146 2.294624
C -2.118670 -3.202829 2.456993
C 3.032133 -2.531405 0.911003
C 0.664453 2.102704 1.970353
C 2.609164 -2.770584 -1.940511
C -2.856100 -0.016191 2.871618
C 1.832634 -2.952878 3.062561
C -2.939486 1.744038 -2.776043
