60
Generated C60 structure
C 0.351538 -0.986156 2.393385
C 2.125601 2.927416 -1.347706
C 2.536836 -2.836185 2.337589
C 2.816044 -2.917604 -1.097917
C 2.622730 2.679761 -2.940928
C -2.869134 -2.775085 2.023613
C 2.501243 -2.608878 -2.244191
C 2.128668 -2.811448 -2.759208
C 2.639179 -2.894239 -2.885000
C -2.915401 2.641074 1.604467
C 2.389792 0.171195 2.620997
C -3.112375 -0.850138 1.194364
C 2.138865 -2.783487 1.450120
C -2.495111 2.654407 -2.695075
C -1.208519 -0.223044 2.492643
C 2.601968 2.757648 -2.723674
C 2.903499 -2.982000 -2.307686
C 1.107149 2.079907 -2.921241
C -3.151420 1.193794 2.639548
C -2.160960 -2.469861 -1.713573
C -0.874344 0.120502 -2.616744
C 0.875988 -3.191839 -3.057095
C -2.249434 0.982224 -2.913828
C -2.411250 0.571789 0.608704
C 2.526029 2.438333 -2.778122
C 2.795126 2.904793 -1.514781
C 2.835690 -2.760724 2.519603
C -0.922792 -1.911677 -0.743817
C -2.527798 -2.515585 2.724698
C 2.836860 2.801789 -2.565536
C -2.114225 2.513998 1.549622
C -0.995466 1.733379 2.744895
C 2.636250 2.398202 2.309278
C -2.354511 -0.179057 -2.789498
C 2.745703 0.730906 -0.942841
C 2.419821 2.627695 -2.015889
C -2.416821 -2.896263 -2.730635
C -2.883503 -2.394037 1.853555
C -2.572143 -2.823120 2.165894
C 1.176136 -2.788312 -2.911284
C 2.086455 2.000087 -0.062169
C 1.499656 2.517030 2.024379
C -3.218783 -2.461869 2.851507
C -2.578536 -2.900512 -1.441192
C -1.543247 2.494144 2.904141
C -2.747794 2.972187 -2.689241
C -2.787503 2.493071 2.581209
C 2.996550 -0.954327 -3.017621
C -2.735896 2.652714 2.858879
C 1.645576 -1.961899 2.701877
C -2.812256 2.728936 2.448118
C 2.927826 -2.776514 2.627295
C 1.079530 -2.283537 -2.757949
C -0.306607 2.945712 -2.536809
C 2.742095 -2.023962 -0.666918
C -2.175181 -2.886486 2.998261
C 2.381245 -2.830502 -1.363253
C 2.980178 -0.834296 -2.773035
C -1.459058 2.447710 2.618345
C 2.962746 -2.762214 -2.487769
