60
Generated C60 structure
C -0.017852 2.428744 2.404656
C -2.804828 2.950271 2.717203
C -2.668257 1.689433 -2.091810
C -3.051562 1.497173 3.087797
C -2.046221 -1.110829 3.009611
C 2.691728 3.078569 -2.598528
C -2.643451 0.438035 -2.920085
C -2.874462 2.608255 -2.469892
C -2.550996 -2.006084 1.597497
C 2.720723 -2.742701 0.405590
C 2.475343 -1.637297 -3.070386
C -2.247292 1.944691 0.798034
C 0.651109 1.179234 3.057223
C 1.494255 1.525465 2.904393
C -2.039696 1.872327 -2.140934
C 2.919971 -2.793810 -2.469456
C 2.384229 2.391155 2.242655
C 2.786622 -2.853712 -2.788550
C -3.156346 0.889747 2.307323
C 1.786276 -2.453622 -0.857621
C -2.520083 -2.960514 -2.832911
C -2.890013 1.934063 2.724507
C -1.145298 -3.034190 1.607686
C 2.335271 -3.093151 -2.138869
C 2.911276 1.555371 0.292022
C -2.723636 -2.849443 1.928903
C 2.860209 -2.711221 -2.910354
C 1.569896 1.378763 1.887491
C 2.797792 2.686007 1.907385
C -1.769976 -3.042147 3.216038
C -2.666531 2.002981 -2.982586
C -0.945846 2.609916 -0.405777
C 0.262320 2.702976 -2.693678
C 2.476941 -2.952796 -2.979000
C -2.758778 2.720520 2.404612
C 2.776626 2.764117 2.814802
C 2.096184 -2.239188 2.624194
C 2.847938 -2.760134 0.193016
C 0.879687 3.015745 2.502013
C -2.906741 2.860060 2.643930
C 1.592212 -2.923398 -3.073340
C 0.779771 2.785658 -2.085132
C 2.353166 -3.003791 0.450474
C 2.306671 2.954381 -2.135191
C 2.458270 2.804242 -2.919708
C 3.060663 -2.614756 0.906658
C 1.507533 0.085346 2.546341
C 1.532773 -3.044786 0.886772
C -2.606428 -0.609031 2.870369
C -2.390852 2.095610 -2.297169
C -3.074224 -3.139596 -2.523904
C 2.381167 1.703695 2.598480
C -2.840545 1.191241 2.929046
C 1.989213 2.816397 3.228833
C 2.637834 -1.005416 3.109026
C -2.711058 1.138068 -0.752691
C 3.090203 2.304379 3.045776
C -2.995933 -2.533715 0.316230
C -2.872540 -1.305679 -2.738827
C -3.234584 -2.543295 2.576805
