H5PbCI3N2 slab (AI termination); vacuum=15.00 Å
1.0
  12.7047439999999998    0.0000000000000000    0.0000000000000008
  -0.0000000000000008   12.9768600000000003    0.0000000000000008
  -0.0000000000000002   -0.0000000000000002   54.5539616288895743
H Pb C I N
100 16 20 52 40
direct
   0.2592245000000000    0.2500000000000000    0.1581926997646208 H+
   0.2592245000000000    0.7500000000000000    0.1581926997646208 H+
   0.7592245000000000    0.2500000000000000    0.1581926997646208 H+
   0.7592245000000000    0.7500000000000000    0.1581926997646208 H+
   0.1335015000000000    0.7500000000000000    0.1709948322805140 H+
   0.6335014999999999    0.2500000000000000    0.1709948322805140 H+
   0.1335015000000000    0.2500000000000000    0.1709948322805140 H+
   0.6335014999999999    0.7500000000000000    0.1709948322805140 H+
   0.3462020000000000    0.2500000000000000    0.1949966552983790 H+
   0.3462020000000000    0.7500000000000000    0.1949966552983790 H+
   0.8462019999999999    0.2500000000000000    0.1949966552983790 H+
   0.8462019999999999    0.7500000000000000    0.1949966552983790 H+
   0.1335015000000000    0.7500000000000000    0.2189984783162438 H+
   0.6335014999999999    0.2500000000000000    0.2189984783162438 H+
   0.1335015000000000    0.2500000000000000    0.2189984783162439 H+
   0.6335014999999999    0.7500000000000000    0.2189984783162439 H+
   0.7592245000000000    0.7500000000000000    0.2318006108321371 H+
   0.2592245000000000    0.7500000000000000    0.2318006108321371 H+
   0.7592245000000000    0.2500000000000000    0.2318006108321371 H+
   0.2592245000000000    0.2500000000000000    0.2318006108321371 H+
   0.2592245000000000    0.2500000000000000    0.2773954085291532 H+
   0.2592245000000000    0.7500000000000000    0.2773954085291532 H+
   0.7592245000000000    0.2500000000000000    0.2773954085291532 H+
   0.7592245000000000    0.7500000000000000    0.2773954085291532 H+
   0.1335015000000000    0.2500000000000000    0.2901975410450464 H+
   0.1335015000000000    0.7500000000000000    0.2901975410450464 H+
   0.6335014999999999    0.2500000000000000    0.2901975410450464 H+
   0.6335014999999999    0.7500000000000000    0.2901975410450464 H+
   0.8462019999999999    0.7500000000000000    0.3141993640629113 H+
   0.3462020000000000    0.2500000000000000    0.3141993640629114 H+
   0.3462020000000000    0.7500000000000000    0.3141993640629114 H+
   0.8462019999999999    0.2500000000000000    0.3141993640629114 H+
   0.1335015000000000    0.2500000000000000    0.3382011870807762 H+
   0.6335014999999999    0.7500000000000000    0.3382011870807762 H+
   0.1335015000000000    0.7500000000000000    0.3382011870807763 H+
   0.6335014999999999    0.2500000000000000    0.3382011870807763 H+
   0.2592245000000000    0.7500000000000000    0.3510033195966695 H+
   0.7592245000000000    0.2500000000000000    0.3510033195966695 H+
   0.2592245000000000    0.2500000000000000    0.3510033195966695 H+
   0.7592245000000000    0.7500000000000000    0.3510033195966695 H+
   0.2592245000000000    0.7500000000000000    0.3965981172936855 H+
   0.7592245000000000    0.2500000000000000    0.3965981172936855 H+
   0.2592245000000000    0.2500000000000000    0.3965981172936856 H+
   0.7592245000000000    0.7500000000000000    0.3965981172936856 H+
   0.6335014999999999    0.7500000000000000    0.4094002498095788 H+
   0.1335015000000000    0.2500000000000000    0.4094002498095789 H+
   0.1335015000000000    0.7500000000000000    0.4094002498095789 H+
   0.6335014999999999    0.2500000000000000    0.4094002498095789 H+
   0.8462019999999999    0.7500000000000000    0.4334020728274437 H+
   0.3462020000000000    0.7500000000000000    0.4334020728274438 H+
   0.8462019999999999    0.2500000000000000    0.4334020728274438 H+
   0.3462020000000000    0.2500000000000000    0.4334020728274438 H+
   0.6335014999999999    0.7500000000000000    0.4574038958453086 H+
   0.1335015000000000    0.7500000000000000    0.4574038958453087 H+
   0.6335014999999999    0.2500000000000000    0.4574038958453087 H+
   0.1335015000000000    0.2500000000000000    0.4574038958453087 H+
   0.7592245000000000    0.7500000000000000    0.4702060283612019 H+
   0.2592245000000000    0.2500000000000000    0.4702060283612020 H+
   0.2592245000000000    0.7500000000000000    0.4702060283612020 H+
   0.7592245000000000    0.2500000000000000    0.4702060283612020 H+
   0.2592245000000000    0.2500000000000000    0.5158008260582180 H+
   0.2592245000000000    0.7500000000000000    0.5158008260582180 H+
   0.7592245000000000    0.2500000000000000    0.5158008260582180 H+
   0.7592245000000000    0.7500000000000000    0.5158008260582180 H+
   0.1335015000000000    0.2500000000000000    0.5286029585741112 H+
   0.1335015000000000    0.7500000000000000    0.5286029585741112 H+
   0.6335014999999999    0.2500000000000000    0.5286029585741112 H+
   0.6335014999999999    0.7500000000000000    0.5286029585741112 H+
   0.8462019999999999    0.7500000000000000    0.5526047815919762 H+
   0.3462020000000000    0.2500000000000000    0.5526047815919763 H+
   0.3462020000000000    0.7500000000000000    0.5526047815919763 H+
   0.8462019999999999    0.2500000000000000    0.5526047815919763 H+
   0.1335015000000000    0.2500000000000000    0.5766066046098410 H+
   0.1335015000000000    0.7500000000000000    0.5766066046098410 H+
   0.6335014999999999    0.2500000000000000    0.5766066046098410 H+
   0.6335014999999999    0.7500000000000000    0.5766066046098410 H+
   0.2592245000000000    0.2500000000000000    0.5894087371257343 H+
   0.2592245000000000    0.7500000000000000    0.5894087371257343 H+
   0.7592245000000000    0.2500000000000000    0.5894087371257343 H+
   0.7592245000000000    0.7500000000000000    0.5894087371257343 H+
   0.2592245000000000    0.2500000000000000    0.6350035348227504 H+
   0.2592245000000000    0.7500000000000000    0.6350035348227504 H+
   0.7592245000000000    0.2500000000000000    0.6350035348227504 H+
   0.7592245000000000    0.7500000000000000    0.6350035348227504 H+
   0.1335015000000000    0.2500000000000000    0.6478056673386439 H+
   0.1335015000000000    0.7500000000000000    0.6478056673386439 H+
   0.6335014999999999    0.2500000000000000    0.6478056673386439 H+
   0.6335014999999999    0.7500000000000000    0.6478056673386439 H+
   0.3462020000000000    0.2500000000000000    0.6718074903565088 H+
   0.3462020000000000    0.7500000000000000    0.6718074903565088 H+
   0.8462019999999999    0.2500000000000000    0.6718074903565088 H+
   0.8462019999999999    0.7500000000000000    0.6718074903565088 H+
   0.1335015000000000    0.2500000000000000    0.6958093133743735 H+
   0.1335015000000000    0.7500000000000000    0.6958093133743735 H+
   0.6335014999999999    0.2500000000000000    0.6958093133743735 H+
   0.6335014999999999    0.7500000000000000    0.6958093133743735 H+
   0.2592245000000000    0.2500000000000000    0.7086114458902666 H+
   0.2592245000000000    0.7500000000000000    0.7086114458902667 H+
   0.7592245000000000    0.2500000000000000    0.7086114458902667 H+
   0.7592245000000000    0.7500000000000000    0.7086114458902667 H+
   0.4824370000000000    0.0000000000000000    0.2545980096806452 Pb2+
   0.4824370000000001    0.5000000000000000    0.2545980096806452 Pb2+
   0.9824369999999999    0.0000000000000000    0.2545980096806452 Pb2+
   0.9824369999999999    0.5000000000000000    0.2545980096806452 Pb2+
   0.4824370000000000    0.0000000000000000    0.3738007184451775 Pb2+
   0.4824370000000001    0.5000000000000000    0.3738007184451775 Pb2+
   0.9824369999999999    0.0000000000000000    0.3738007184451775 Pb2+
   0.9824369999999999    0.5000000000000000    0.3738007184451776 Pb2+
   0.4824370000000000    0.0000000000000000    0.4930034272097101 Pb2+
   0.4824370000000001    0.5000000000000000    0.4930034272097101 Pb2+
   0.9824369999999999    0.0000000000000000    0.4930034272097101 Pb2+
   0.9824369999999999    0.5000000000000000    0.4930034272097101 Pb2+
   0.4824370000000000    0.0000000000000000    0.6122061359742423 Pb2+
   0.4824370000000001    0.5000000000000000    0.6122061359742423 Pb2+
   0.9824369999999999    0.0000000000000000    0.6122061359742423 Pb2+
   0.9824369999999999    0.5000000000000000    0.6122061359742424 Pb2+
   0.7599155000000001    0.2500000000000000    0.1949966552983789 C2+
   0.2599155000000000    0.2500000000000000    0.1949966552983790 C2+
   0.2599155000000000    0.7500000000000000    0.1949966552983790 C2+
   0.7599155000000001    0.7500000000000000    0.1949966552983790 C2+
   0.2599155000000000    0.2500000000000000    0.3141993640629113 C2+
   0.7599155000000001    0.7500000000000000    0.3141993640629113 C2+
   0.2599155000000000    0.7500000000000000    0.3141993640629114 C2+
   0.7599155000000001    0.2500000000000000    0.3141993640629114 C2+
   0.7599155000000001    0.7500000000000000    0.4334020728274437 C2+
   0.2599155000000000    0.7500000000000000    0.4334020728274438 C2+
   0.7599155000000001    0.2500000000000000    0.4334020728274438 C2+
   0.2599155000000000    0.2500000000000000    0.4334020728274438 C2+
   0.7599155000000001    0.7500000000000000    0.5526047815919762 C2+
   0.2599155000000000    0.2500000000000000    0.5526047815919763 C2+
   0.2599155000000000    0.7500000000000000    0.5526047815919763 C2+
   0.7599155000000001    0.2500000000000000    0.5526047815919763 C2+
   0.2599155000000000    0.2500000000000000    0.6718074903565088 C2+
   0.2599155000000000    0.7500000000000000    0.6718074903565088 C2+
   0.7599155000000001    0.2500000000000000    0.6718074903565088 C2+
   0.7599155000000001    0.7500000000000000    0.6718074903565088 C2+
   0.4918860000000001    0.5000000000000000    0.1949966552983789 I-
   0.9918859999999999    0.0000000000000000    0.1949966552983789 I-
   0.4918860000000000    0.0000000000000000    0.1949966552983790 I-
   0.9918859999999999    0.5000000000000000    0.1949966552983790 I-
   0.2313650000000000    0.0000000000000000    0.2545980096806452 I-
   0.2313650000000000    0.5000000000000000    0.2545980096806452 I-
   0.7313649999999999    0.0000000000000000    0.2545980096806452 I-
   0.7313649999999999    0.5000000000000000    0.2545980096806452 I-
   0.4602915000000000    0.2500000000000000    0.2545980096806452 I-
   0.4602915000000001    0.7500000000000000    0.2545980096806452 I-
   0.9602915000000000    0.2500000000000000    0.2545980096806452 I-
   0.9602915000000000    0.7500000000000000    0.2545980096806452 I-
   0.4918860000000000    0.0000000000000000    0.3141993640629113 I-
   0.9918859999999999    0.5000000000000000    0.3141993640629113 I-
   0.4918860000000001    0.5000000000000000    0.3141993640629114 I-
   0.9918859999999999    0.0000000000000000    0.3141993640629114 I-
   0.2313650000000000    0.5000000000000000    0.3738007184451775 I-
   0.7313649999999999    0.0000000000000000    0.3738007184451775 I-
   0.4602915000000000    0.2500000000000000    0.3738007184451775 I-
   0.9602915000000000    0.7500000000000000    0.3738007184451775 I-
   0.2313650000000000    0.0000000000000000    0.3738007184451776 I-
   0.7313649999999999    0.5000000000000000    0.3738007184451776 I-
   0.4602915000000001    0.7500000000000000    0.3738007184451776 I-
   0.9602915000000000    0.2500000000000000    0.3738007184451776 I-
   0.9918859999999999    0.5000000000000000    0.4334020728274437 I-
   0.4918860000000001    0.5000000000000000    0.4334020728274438 I-
   0.9918859999999999    0.0000000000000000    0.4334020728274438 I-
   0.4918860000000000    0.0000000000000000    0.4334020728274438 I-
   0.2313650000000000    0.0000000000000000    0.4930034272097101 I-
   0.2313650000000000    0.5000000000000000    0.4930034272097101 I-
   0.7313649999999999    0.0000000000000000    0.4930034272097101 I-
   0.7313649999999999    0.5000000000000000    0.4930034272097101 I-
   0.4602915000000000    0.2500000000000000    0.4930034272097101 I-
   0.4602915000000001    0.7500000000000000    0.4930034272097101 I-
   0.9602915000000000    0.2500000000000000    0.4930034272097101 I-
   0.9602915000000000    0.7500000000000000    0.4930034272097101 I-
   0.9918859999999999    0.5000000000000000    0.5526047815919762 I-
   0.4918860000000000    0.0000000000000000    0.5526047815919763 I-
   0.4918860000000001    0.5000000000000000    0.5526047815919763 I-
   0.9918859999999999    0.0000000000000000    0.5526047815919763 I-
   0.2313650000000000    0.0000000000000000    0.6122061359742423 I-
   0.2313650000000000    0.5000000000000000    0.6122061359742423 I-
   0.7313649999999999    0.0000000000000000    0.6122061359742423 I-
   0.4602915000000000    0.2500000000000000    0.6122061359742423 I-
   0.7313649999999999    0.5000000000000000    0.6122061359742424 I-
   0.4602915000000001    0.7500000000000000    0.6122061359742424 I-
   0.9602915000000000    0.2500000000000000    0.6122061359742424 I-
   0.9602915000000000    0.7500000000000000    0.6122061359742424 I-
   0.4918860000000000    0.0000000000000000    0.6718074903565088 I-
   0.4918860000000001    0.5000000000000000    0.6718074903565088 I-
   0.9918859999999999    0.0000000000000000    0.6718074903565088 I-
   0.9918859999999999    0.5000000000000000    0.6718074903565088 I-
   0.2133540000000001    0.7500000000000000    0.1735196648548556 N3-
   0.7133540000000000    0.2500000000000000    0.1735196648548556 N3-
   0.7133540000000000    0.7500000000000000    0.1735196648548556 N3-
   0.2133540000000001    0.2500000000000000    0.1735196648548556 N3-
   0.2133540000000001    0.2500000000000000    0.2164736457419023 N3-
   0.2133540000000001    0.7500000000000000    0.2164736457419023 N3-
   0.7133540000000000    0.2500000000000000    0.2164736457419023 N3-
   0.7133540000000000    0.7500000000000000    0.2164736457419023 N3-
   0.2133540000000001    0.7500000000000000    0.2927223736193880 N3-
   0.7133540000000000    0.2500000000000000    0.2927223736193880 N3-
   0.7133540000000000    0.7500000000000000    0.2927223736193880 N3-
   0.2133540000000001    0.2500000000000000    0.2927223736193880 N3-
   0.7133540000000000    0.7500000000000000    0.3356763545064347 N3-
   0.2133540000000001    0.2500000000000000    0.3356763545064347 N3-
   0.2133540000000001    0.7500000000000000    0.3356763545064347 N3-
   0.7133540000000000    0.2500000000000000    0.3356763545064347 N3-
   0.7133540000000000    0.7500000000000000    0.4119250823839204 N3-
   0.2133540000000001    0.2500000000000000    0.4119250823839204 N3-
   0.2133540000000001    0.7500000000000000    0.4119250823839204 N3-
   0.7133540000000000    0.2500000000000000    0.4119250823839204 N3-
   0.2133540000000001    0.2500000000000000    0.4548790632709671 N3-
   0.2133540000000001    0.7500000000000000    0.4548790632709671 N3-
   0.7133540000000000    0.2500000000000000    0.4548790632709671 N3-
   0.7133540000000000    0.7500000000000000    0.4548790632709672 N3-
   0.2133540000000001    0.2500000000000000    0.5311277911484529 N3-
   0.2133540000000001    0.7500000000000000    0.5311277911484529 N3-
   0.7133540000000000    0.2500000000000000    0.5311277911484529 N3-
   0.7133540000000000    0.7500000000000000    0.5311277911484529 N3-
   0.2133540000000001    0.2500000000000000    0.5740817720354996 N3-
   0.2133540000000001    0.7500000000000000    0.5740817720354996 N3-
   0.7133540000000000    0.2500000000000000    0.5740817720354996 N3-
   0.7133540000000000    0.7500000000000000    0.5740817720354996 N3-
   0.2133540000000001    0.2500000000000000    0.6503304999129851 N3-
   0.2133540000000001    0.7500000000000000    0.6503304999129851 N3-
   0.7133540000000000    0.2500000000000000    0.6503304999129851 N3-
   0.7133540000000000    0.7500000000000000    0.6503304999129852 N3-
   0.2133540000000001    0.2500000000000000    0.6932844808000319 N3-
   0.2133540000000001    0.7500000000000000    0.6932844808000319 N3-
   0.7133540000000000    0.2500000000000000    0.6932844808000319 N3-
   0.7133540000000000    0.7500000000000000    0.6932844808000319 N3-
