layer2
1.0
  12.7047439999999998    0.0000000000000000    0.0000000000000000
   0.0000000000000000   12.9768600000000003    0.0000000000000000
   0.0000000000000000    0.0000000000000000   57.1962619999999973
C
70
direct
   0.4999229996291149    0.4523269997518660    0.5797669999833206 C
   0.5000169999489954    0.5655110003498536    0.5806130000243722 C
   0.5949479997393100    0.3990179997318304    0.5849399999251699 C
   0.4048030003595507    0.3991939999352694    0.5849459999676202 C
   0.5951680002367620    0.6169850002234748    0.5865680000207008 C
   0.4049800003841085    0.6171489998350911    0.5865779999748935 C
   0.6921399998299848    0.4536459998797861    0.5893940000834320 C
   0.3077140003765522    0.4539750001155904    0.5894120000359464 C
   0.6922460003916647    0.5610019997133360    0.5902029999792643 C
   0.3078050002424291    0.5613279999938352    0.5902180000853902 C
   0.5948840000239281    0.3071700002928290    0.5990510000461219 C
   0.4047069999993703    0.3073429997703605    0.5990549999578644 C
   0.5952659998501347    0.7045429996162400    0.6020230000345127 C
   0.4050710002499854    0.7047069999984589    0.6020299999674803 C
   0.7533410000232983    0.3952810001803210    0.6061609999968179 C
   0.2464010002877665    0.3957110001957330    0.6061780000588151 C
   0.7535530003595508    0.6142659996331933    0.6078029999582839 C
   0.2466180003312149    0.6147040000431537    0.6078210000856350 C
   0.4997570002197604    0.2663540001202140    0.6083429999324081 C
   0.5002100002959524    0.7427099999537639    0.6119110000580108 C
   0.6920320000151124    0.3050620003606420    0.6122270000791310 C
   0.3075829997046772    0.3053990002203923    0.6122420000104202 C
   0.6923909997714240    0.7026180000400714    0.6152090000217146 C
   0.3079539997027882    0.7029519999445167    0.6152219999971327 C
   0.8122119997065663    0.4463950000231180    0.6232970000731866 C
   0.1876390000459671    0.4469039998890332    0.6233219999586687 C
   0.8123180002682463    0.5581999998458795    0.6241409999835303 C
   0.1877480002745431    0.5587189998196791    0.6241559999148196 C
   0.4997559998060567    0.2278040003513947    0.6324990000220644 C
   0.6920179997330131    0.2685249998844096    0.6351439999697882 C
   0.3075659997556818    0.2688480002096039    0.6351580000105601 C
   0.5002409997399396    0.7741340000585658    0.6365939999715365 C
   0.6924380003249180    0.7324219996208637    0.6386239999390170 C
   0.3079950001353825    0.7327469996593938    0.6386360000239176 C
   0.5948659996612289    0.2329639997657369    0.6455710000768931 C
   0.4046739997279756    0.2331280001479557    0.6455769999445068 C
   0.8121839999294751    0.4083060000647306    0.6471629999177219 C
   0.1876289998444675    0.4088480002096039    0.6471909999992657 C
   0.8123489997122334    0.5892040000431538    0.6485290000245121 C
   0.1878070002827290    0.5897659996331932    0.6485409999345760 C
   0.5953269998986205    0.7649810000262005    0.6495590000269598 C
   0.4051680002367619    0.7651530000323653    0.6495689999811526 C
   0.7533119998325035    0.3207029998011846    0.6529129999789147 C
   0.2463749997638677    0.3211410002111451    0.6529289999755578 C
   0.7536199997418287    0.6750450001001784    0.6555689999461853 C
   0.2467189996114837    0.6754859996948414    0.6555840000523111 C
   0.8122849999968516    0.4965640000739779    0.6627590000549336 C
   0.1877199997103444    0.4971440001664502    0.6627780000728020 C
   0.5948860000642280    0.2637340003668068    0.6697520000520314 C
   0.4047250003620695    0.2639110000416126    0.6697550000732566 C
   0.5953030002021292    0.7272319998828686    0.6732270000441638 C
   0.4051629997424585    0.7273990002203924    0.6732350000424853 C
   0.6920690003671069    0.3182829998936569    0.6742650000449331 C
   0.3076419997128632    0.3186190002820405    0.6742780000203510 C
   0.6923880001045279    0.6713359996177812    0.6769140000792360 C
   0.3079700000251874    0.6716820001140491    0.6769259999892999 C
   0.4998290000963419    0.2900800000924723    0.6814580000000700 C
   0.7534920003110649    0.4935949998689976    0.6834520000625215 C
   0.2465490001215294    0.4940450001001783    0.6834650000379395 C
   0.5002159996297446    0.6976739997195007    0.6845149999487730 C
   0.6921629998998798    0.4030260001263788    0.6892419999404856 C
   0.3077319999521438    0.4033749998073494    0.6892499999388071 C
   0.6923489997122335    0.5824029996470641    0.6905829999869572 C
   0.3078669999175112    0.5827439997040886    0.6905940000065039 C
   0.4999300001637184    0.3794519999445167    0.6972389999891950 C
   0.5001249997638677    0.6039359999260222    0.6989310000712983 C
   0.5950610000484858    0.4358260002804993    0.7001469999910134 C
   0.4049009999729235    0.4359859996948414    0.7001549999893349 C
   0.5951810001051576    0.5467119996670998    0.7009789999912932 C
   0.4049800003841085    0.5468659999414343    0.7009830000778722 C
