layer1
1.0
  12.7047439999999998    0.0000000000000000    0.0000000000000000
   0.0000000000000000   12.9768600000000003    0.0000000000000000
   0.0000000000000000    0.0000000000000000   57.1962619999999973
H C N I Pb
80 16 32 40 12
direct
   0.7380540001435685    0.8943269997518660    0.1719620000691654 H
   0.1068449997890552    0.1280770001371672    0.1749900000458072 H
   0.5742700002455775    0.8245450001001784    0.1760040000516118 H
   0.5455860000012593    0.3245140003051586    0.1765500000681863 H
   0.1408470001441981    0.7467599997225831    0.1768259999228621 H
   0.1485099998866565    0.6107129999090689    0.1782229999575846 H
   0.1145999998110942    0.2640040001972743    0.1786410000010140 H
   0.7050909998658769    0.4009210001494969    0.1799390000346526 H
   0.8889059999949626    0.8043220000832252    0.1813419999369889 H
   0.5915009999414391    0.1983109997333715    0.1819839999334222 H
   0.6199709998092051    0.6998429997703606    0.1828059999795091 H
   0.8188170001693856    0.6914769998289263    0.1885249999379330 H
   0.2688610002688759    0.0980270003683480    0.1914089999447866 H
   0.8531959998564316    0.3113109997333716    0.1918900000842712 H
   0.7860839998035379    0.1934699996763470    0.1945049999945801 H
   0.2748129997739427    0.3246769996748057    0.2007120000254562 H
   0.2617260001460872    0.8451259996640174    0.2011869999476539 H
   0.2885859998438379    0.6168679996547701    0.2047460000095810 H
   0.3641390003608101    0.2301869997826901    0.2089790000612278 H
   0.3486250002361322    0.7741850000693542    0.2189609999338768 H
   0.7990260000516343    0.7067149996224048    0.2638279999836353 H
   0.2474660001020091    0.2617490001433321    0.2683870000105951 H
   0.8056280000604499    0.2955970003529360    0.2701839999613961 H
   0.3107440000365218    0.6291310001032607    0.2763620000202111 H
   0.6759999996851570    0.7242819996516877    0.2770870000210853 H
   0.6959599996662663    0.3580279998397147    0.2835279999591581 H
   0.1955089996303743    0.1604989997580309    0.2852749999641585 H
   0.1916520002292057    0.6043519996362756    0.2909649999505213 H
   0.3340059996486351    0.7878030001094255    0.2935199999608366 H
   0.8919700003400304    0.7243559998335499    0.2979840000732915 H
   0.2764100000755623    0.3671109998874920    0.2999710000279389 H
   0.8354080003501054    0.1927370003221118    0.3027519999471294 H
   0.1350849997449771    0.7430589996347345    0.3200250000603186 H
   0.2147849999968516    0.8518260002804994    0.3210580000839915 H
   0.6828549996757116    0.7551869997826901    0.3216049999910833 H
   0.6531110001114544    0.3075219999291046    0.3236040000306314 H
   0.2023679997015288    0.1892720003144058    0.3291790000192670 H
   0.8110899999244376    0.7523869996285697    0.3333539999519549 H
   0.7294370000686359    0.2099989997580308    0.3362429999359049 H
   0.2376349999653673    0.3139280003020762    0.3380249999554167 H
   0.7173819999836282    0.6693860001572028    0.3823849999148546 H
   0.1585680002682462    0.7587650001618266    0.3856450000176585 H
   0.2593860002216495    0.8495599998767037    0.3858119999170575 H
   0.6240360002531338    0.7658260002804994    0.3871049999735997 H
   0.2380759997997598    0.1285889999583875    0.3929389999297506 H
   0.1332149998457269    0.2151030002635461    0.3940549999578644 H
   0.6240309997588303    0.2928730000940135    0.3962969999682846 H
   0.7208579999722938    0.3872889998042670    0.3977599999454510 H
   0.8164339997720536    0.7170780003791365    0.4151960000462968 H
   0.6612410002122041    0.1279650000077060    0.4186449999127565 H
   0.1531389998885456    0.6358309999491403    0.4200970000452127 H
   0.3304000001889058    0.7888670001834035    0.4209740000141967 H
   0.3357560002783212    0.2173220000832251    0.4211329999152741 H
   0.1544010001303450    0.3657870000909311    0.4217770000424153 H
   0.8298629999943329    0.2891880000246593    0.4220200000132876 H
   0.6459869998167613    0.8736410002111451    0.4231019999174072 H
   0.7807109997651270    0.1245399996609349    0.4336660000613327 H
   0.2704400002077964    0.3667390000354477    0.4380960000497934 H
   0.7583099997922036    0.8477140001510380    0.4399159999302052 H
   0.2517749999527735    0.6531449996378169    0.4409619999292961 H
   0.6957980003375117    0.6636209999953765    0.4950479999899294 H
   0.1924179999219189    0.1622900000462361    0.4971970000417160 H
   0.5911219997821286    0.7474410003652656    0.4996859999347509 H
   0.0914500000944529    0.2484329999707171    0.5030199999783203 H
   0.6980229999124736    0.1489780000708954    0.5049260000592346 H
   0.1867790000333734    0.6353990002203923    0.5118090000357016 H
   0.8321839999294751    0.2615629998320087    0.5147200000587451 H
   0.3270610002059073    0.7476150000847663    0.5161789999493324 H
   0.6056400003022493    0.2096640003822188    0.5230139999358699 H
   0.7979679999848875    0.7352690003591008    0.5250220000390934 H
   0.3052520003551429    0.2336790001587441    0.5251400000580457 H
   0.0999450000724139    0.7136030002635461    0.5277350000599689 H
   0.6191949999149924    0.8841359997719018    0.5316879999955242 H
   0.1302210001240481    0.3843420002989937    0.5340890000818584 H
   0.3073540002065370    0.9062690003591009    0.5347920000436392 H
   0.8050060001208996    0.4011239999506815    0.5389319999618156 H
   0.1719010001303450    0.8826579997010062    0.5406729999243657 H
   0.6695610002059073    0.3716099996455229    0.5429590000129729 H
   0.7441040000491156    0.8786239999506815    0.5446180000364360 H
   0.2599930002525041    0.3804180001941919    0.5448000000419607 H
   0.7318699998992503    0.8133320001911094    0.1767359999854536 C
   0.7003439998476160    0.3177379997934786    0.1825500000332189 C
   0.2400469997663865    0.1770699999845879    0.1901169999535983 C
   0.2552579996889351    0.6881980001325436    0.1979179999560111 C
   0.2657419999962219    0.7418939997811489    0.2984319999792993 C
   0.8063999998740629    0.7304579998551268    0.2986289999161134 C
   0.2447709997147522    0.2901429999244809    0.3029700000325196 C
   0.7713259999571813    0.2489549998998217    0.3030560000581856 C
   0.7440079996889352    0.7584050001310024    0.4110900000772778 C
   0.2607849996820085    0.7518649996994651    0.4136109999635990 C
   0.2587079999408095    0.2460979998243027    0.4158659999494372 C
   0.7546129996794898    0.2578489996809706    0.4162360000029373 C
   0.7189830003658475    0.7651030002635461    0.5217269999217782 C
   0.7550149999086956    0.2719950003313590    0.5228269999532487 C
   0.2258510002247979    0.2646999998458796    0.5230779999224425 C
   0.2516290001593106    0.7670650003159470    0.5241960000812641 C
   0.6362129996480055    0.7743269997518660    0.1779190000213650 N
   0.6073049996127431    0.2749959998027258    0.1791930000600389 N
   0.1495539996713039    0.1923589997888549    0.1793800000426601 N
   0.8201830001454574    0.7625939996270286    0.1806089999377931 N
   0.1804279999659969    0.6814219996208636    0.1819759999351007 N
   0.7867059997430881    0.2690629998320087    0.1888020000327993 N
   0.3001039997342725    0.2502069999984588    0.1989099999227222 N
   0.2935430001580512    0.7756969998905745    0.2058300000444085 N
   0.7559949999779610    0.7186049999768819    0.2786870000350722 N
   0.7567959999823688    0.3057750002697108    0.2842979999287366 N
   0.2310519999458470    0.2313649996994651    0.2844559999392968 N
   0.2564860000327437    0.6506329998165967    0.2885899999898595 N
   0.1994079998778409    0.7815100001078844    0.3136440000222392 N
   0.7627719999710344    0.7494340002126864    0.3190240000299320 N
   0.7134529999187704    0.2558809997179595    0.3221700000255261 N
   0.2249159998816190    0.2625499997688193    0.3246980000196516 N
   0.6934880002304651    0.7324560001417909    0.3919130000138820 N
   0.2251399996725632    0.7870070001525794    0.3935190000703193 N
   0.2059389996366711    0.1932279996855942    0.4001690000301069 N
   0.6939390002663572    0.3173659999414343    0.4034209999597526 N
   0.7308709998406894    0.1633190001279200    0.4228520000135673 N
   0.2183970003645882    0.6757439997040887    0.4255600000573464 N
   0.7131680000793404    0.8308000001541206    0.4256919999422339 N
   0.2250849997449771    0.3315450001001783    0.4257690000790611 N
   0.6625319998576910    0.7195589996347345    0.5054960000707739 N
   0.1630050003368820    0.2186489998350911    0.5081060000039862 N
   0.6809769996152618    0.2062059997564896    0.5167930000390585 N
   0.1748370002575416    0.6994329999707172    0.5220379999658019 N
   0.6876720003173618    0.8435040001972742    0.5347449999442271 N
   0.2438219998765815    0.8564539996578525    0.5349799999167778 N
   0.1998520001662371    0.3443179998859509    0.5362370000682911 N
   0.7433879997896848    0.3495330002789581    0.5375299999499967 N
   0.0293360000012594    0.4461069996902178    0.1800490000552833 I
   0.4826539999546626    0.0090770001371672    0.1813129999649278 I
   0.4857209999666267    0.5246389997272067    0.1834499999318137 I
   0.0602520003551429    0.9305460003421476    0.1836660000613327 I
   0.7809949999779610    0.0199099997996434    0.2148830000464017 I
   0.7703700003715147    0.5608480002096039    0.2219220000775575 I
   0.9566909998343925    0.2571220002373455    0.2401309999943703 I
   0.2666500001889058    0.4460909996717233    0.2420420000523811 I
   0.5089640003765523    0.2296600001849446    0.2422859999137706 I
   0.2803929996543024    0.9887889998042670    0.2504839999858732 I
   0.4847479996448570    0.7263950000231181    0.2512489999783552 I
   0.0209449997575709    0.7452699998304676    0.2517470000050003 I
   0.6627380000730435    0.9898440000123296    0.2870070000378696 I
   0.0198480000856373    0.4894029996470641    0.2936550000417860 I
   0.5260459998249473    0.4641899997379952    0.2942970000382192 I
   0.0080209998721737    0.0390480000554834    0.2945890000643748 I
   0.4932820000151125    0.7846459998797861    0.3401709999859781 I
   0.2333369999426986    0.0071470001217552    0.3522059999305549 I
   0.9912989998066865    0.7261459998797861    0.3564610000212951 I
   0.7322069999993703    0.5070170002604637    0.3582359999330026 I
   0.7099629996480055    0.0217319998828684    0.3630560000581856 I
   0.4761820002040182    0.2616440001664501    0.3638500000227288 I
   0.2169249998268363    0.4784250003467711    0.3674279999276875 I
   0.9615269996782304    0.2458999996917590    0.3685789999703127 I
   0.4779729996920836    0.5436150000847664    0.4053590000339533 I
   0.9810720003488460    0.9726799996301110    0.4055589999919925 I
   0.4814839999924437    0.9972279996855943    0.4174220000600739 I
   0.9863230002902852    0.4969410003652656    0.4182060000704242 I
   0.7136650002550229    0.5402259999722584    0.4595910000202461 I
   0.4935640001876464    0.2607750002697109    0.4596560000721726 I
   0.9756999999370315    0.7554650000077061    0.4607669999483533 I
   0.2114189998633581    0.0426299998612916    0.4613239999844745 I
   0.9398819999836281    0.2524980002866641    0.4711570000850755 I
   0.4301539999546626    0.7591980001325437    0.4718810000205957 I
   0.7389869996593398    0.9955160000184945    0.4771399999881111 I
   0.2369370000686358    0.4997319998828685    0.4784870000770330 I
   0.4626479998337629    0.0238019998674564    0.5295179999699980 I
   0.9647729997550522    0.5090770001371673    0.5301660000088817 I
   0.4738849999653673    0.4231549997457013    0.5362509999342264 I
   0.9676360003790709    0.9065909996717234    0.5375519999890902 I
   0.5556309997273460    0.0031589999429754    0.2341749999326879 Pb
   0.0204890000144828    0.4775930001556617    0.2344059999934961 Pb
   0.5370369997223085    0.5018960002650873    0.2375029999338069 Pb
   0.0415190003041384    0.9716020000215769    0.2417070000133925 Pb
   0.5245500003778116    0.0128269997518660    0.3299740000491641 Pb
   0.9918389996681555    0.4849620000524010    0.3469199999468497 Pb
   0.9800529998872861    0.0139259998181378    0.3544310000538147 Pb
   0.4789819999521439    0.4934760003575596    0.3544340000750398 Pb
   0.4448500001259372    0.9974259998181380    0.4712950000124134 Pb
   0.9469320003614399    0.4905270003683480    0.4719569999172323 Pb
   0.4819289999074362    0.4660079996239461    0.4832089999168127 Pb
   0.9791460001083060    0.9583499999229398    0.4849840000033569 Pb
