layer3
1.0
  12.7047439999999998    0.0000000000000000    0.0000000000000000
   0.0000000000000000   12.9768600000000003    0.0000000000000000
   0.0000000000000000    0.0000000000000000   57.1962619999999973
C
60
direct
   0.5019459998564315    0.4939389998813273    0.7359500000192321 C
   0.5698699997418287    0.5814560001417909    0.7408010000723474 C
   0.3941569999364017    0.5245909996717234    0.7408250000673121 C
   0.5356239999798500    0.3940339997503248    0.7413060000319601 C
   0.3954650003179915    0.6310539999660936    0.7486939999680398 C
   0.5040660000705248    0.6661739997195006    0.7486939999680398 C
   0.6689810003255476    0.5657750002697108    0.7508600000818235 C
   0.3240459996675258    0.4542639999198573    0.7508920000751098 C
   0.6385620001473465    0.3778090000200356    0.7517530000474506 C
   0.4628309999792203    0.3209950003313590    0.7517669999133859 C
   0.7040159998501347    0.4620450001001783    0.7564359999609764 C
   0.3590470000812295    0.3505450001001783    0.7564770000179383 C
   0.5398759998627285    0.7321890002666285    0.7663280000710535 C
   0.3266989999955922    0.6632279996855943    0.7663520000660182 C
   0.6294209997462366    0.2947089997117947    0.7686589999535284 C
   0.5208079997519036    0.2596039997349128    0.7686639999306248 C
   0.7061500003463274    0.6343160001726149    0.7691740000421706 C
   0.2526030001076763    0.4876709997641957    0.7692259999438424 C
   0.6428030002021292    0.7159229998628328    0.7767720000653190 C
   0.2538970002071667    0.5901920002219335    0.7768060000144764 C
   0.7627500003148430    0.4664650000077061    0.7782099999821666 C
   0.3091999996221884    0.3198179998859509    0.7782529999949996 C
   0.4684290002222792    0.7655710002265571    0.7846640000704941 C
   0.3638469999867766    0.7317439997040887    0.7846729999593330 C
   0.7640979999282158    0.5729370001679913    0.7860779999923772 C
   0.2434250001416794    0.4045939996270284    0.7861339999806281 C
   0.6859889998570613    0.2989739998736212    0.7896290000559826 C
   0.4728350000598202    0.2300320000369889    0.7896420000314006 C
   0.7539670000434483    0.3864359999260222    0.7944870000420656 C
   0.3650670001693856    0.2607259999722583    0.7945220000565771 C
   0.6349839996776008    0.7393109997333716    0.8015559999358000 C
   0.2460569996530430    0.6135510000107884    0.8015879999290862 C
   0.5271920000906748    0.7699430000786015    0.8064350000704591 C
   0.3140000003148430    0.7010490002974527    0.8064510000671022 C
   0.7565660000705249    0.5953920000678130    0.8099479999234914 C
   0.2358749999212892    0.4270789998505031    0.8100030000212252 C
   0.6361809997903146    0.2682530003406063    0.8114100000101405 C
   0.5315959998879158    0.2344460000339065    0.8114149999872370 C
   0.6907779999345126    0.6801570002296395    0.8178249999973775 C
   0.2372449999779610    0.5335429996162400    0.8178699999660817 C
   0.7461109999540330    0.4098139996886766    0.8192700000220293 C
   0.3572090000396702    0.2840740001818622    0.8193080000577659 C
   0.7473819999836282    0.5123179998859508    0.8268600000468562 C
   0.2938619998954721    0.3656890002666285    0.8269000000384640 C
   0.4791880001674965    0.7404150002388867    0.8274129999963983 C
   0.3705920001221591    0.7052829998936568    0.8274170000829775 C
   0.6733159999131033    0.3367880003329003    0.8297289999475840 C
   0.4601399996725632    0.2678179998859508    0.8297499999213235 C
   0.6409389996366711    0.6494850002234748    0.8396080000822430 C
   0.2959949999779610    0.5379280003020762    0.8396450000526258 C
   0.5371339997090850    0.6789850002234747    0.8443080000577660 C
   0.3613930001265669    0.6222029998011845    0.8443299999220228 C
   0.6759259997682756    0.5457550000539422    0.8451880000479752 C
   0.3310160000075562    0.4341990003745128    0.8452209999317788 C
   0.6045049998646175    0.3689099997996434    0.8473849999148546 C
   0.4958899998299847    0.3338190001279200    0.8473920000226588 C
   0.4643330003343633    0.6059500002311807    0.8547700000045457 C
   0.6058760003349930    0.4753689998967393    0.8552550000557728 C
   0.4301410000862670    0.4185930001556617    0.8552790000507376 C
   0.4981020003236586    0.5060740001818622    0.8601309999943703 C
